echo

start molecule

title "Title"
charge 0

geometry units angstroms print xyz autosym
  Au        0.01378        0.04018        0.24486
  Au        1.44993        0.85939       -2.22479
  Au       -1.43270       -0.81711       -4.59091
  Au       -4.31075        2.53736        0.24265
  Au        1.45374        2.53749        0.24298
  Au       -7.19802       -4.13398       -2.22440
  Au       -4.32382       -2.49636       -7.06076
  Au       -2.86888        0.04051        0.24221
  Au       -2.87058       -4.95214        0.24209
  Au       -1.43288       -4.13389       -2.22514
  Au       -4.31614       -0.82025       -4.59219
  Au       -2.87310       -1.63723       -2.22988
  Au       -1.42958       -2.45575        0.24318
  Au        0.00882       -1.63736       -2.22408
  Au       -2.87656       -3.31664       -4.59096
   O       -2.54076        0.05245        3.07397
  Au        2.89588        0.04089        0.24285
  Au       -7.19350       -2.45563        0.24367
  Au       -4.31078       -2.45588        0.24170
  Au       -1.43161        0.85964       -2.22468
   H       -3.46254        0.19135        2.79745
  Xx       -1.20654       -2.22051        3.43330
  Au       -5.75240       -4.95188        0.24332
  Au        0.01238       -4.95233        0.24357
  Au       -5.75582       -1.63790       -2.22590
  Au       -4.31428        0.85803       -2.22707
  Au       -4.31549       -4.13450       -2.22579
  Au        1.45384       -2.45599        0.24480
  Au       -5.76235       -3.31355       -4.58984
  Au       -1.42787        2.53739        0.24303
  Au       -5.75199        0.04089        0.24197
end

basis
  * library 6-31G*
end

dft
  xc b3lyp
  mult 1
end

task dft energy
