echo

start molecule

title "Durene"

print low

charge 0

geometry units angstroms print xyz autosym
  load format xyz Durene.ams.xyz
end

basis
 * library cc-pvtz
end

dft
  grid fine
  xc b3lyp
  mult 1
# Reduce output during geometry optimization
  noprint "final vectors analysis"
end

driver
  maxiter 80
  xyz durene_geom
end

task dft optimize
task dft freq numerical
