echo

start molecule

title "PCDM excited"
charge 0

geometry units angstroms print xyz  noautoz autosym 0.1
   N       14.74894       -7.94501       -1.57091
   C       14.06717       -9.12741       -1.41811
   C       14.07351       -6.75757       -1.42940
   C       12.70045       -9.13908       -1.12841
   C       12.70688       -6.73582       -1.13988
   C       12.01825       -7.93493       -0.99002
   C       16.20085       -7.95034       -1.87556
   C       16.96017       -9.23883       -2.00281
   C       16.96719       -6.66720       -2.01415
   O       16.69426      -10.01099       -2.91278
   O       16.70605       -5.90198       -2.93133
   O       17.96573       -6.39989       -1.13357
   O       17.95817       -9.50330       -1.12076
   C       18.78691       -5.28774       -1.15638
   C       20.23498       -5.73214       -1.29854
   C       18.77293      -10.62034       -1.13373
   C       20.22324      -10.18578       -1.28338
   H       14.56378      -10.08262       -1.51431
   H       14.57522       -5.80599       -1.53472
   H       12.17549      -10.07844       -1.01123
   H       12.18695       -5.79258       -1.03170
   H       10.95951       -7.93102       -0.76521
   H       18.53708       -4.59881       -1.99277
   H       18.66595       -4.73301       -0.20203
   H       20.51435       -6.39754       -0.45402
   H       20.37097       -6.28197       -2.25411
   H       20.90248       -4.84476       -1.29452
   H       18.51749      -11.31638       -1.96250
   H       18.65067      -11.16455       -0.17351
   H       20.88563      -11.07690       -1.27155
   H       20.36037       -9.64669       -2.24490
   H       20.50820       -9.51327       -0.44640
end

basis
  * library 6-311G*
end

cosmo
  solvent water
end

tddft
  xc b3lyp
  mult 1
end

property
 dipole
end

task tddft optimize 
task tddft property
