#===============================================================================
# Created using the Atomic Simulation Environment (ASE)

# Tue Jul  9 20:17:36 2024

#=======================================================
lattice_vector 3.8395898218429529 0.0000000000000000 0.0000000000000000 
lattice_vector 0.0000000000000000 3.8395898218429529 0.0000000000000000 
lattice_vector 0.0000000000000000 0.0000000000000000 46.7875000000000014 
atom 0.0000000000000000 0.0000000000000000 20.0000000000000000 Si
atom 1.9197949109214765 0.0000000000000000 21.3575000000000017 Si
atom 1.9197949109214765 1.9197949109214765 22.7149999999999999 Si
atom 0.0000000000000000 1.9197949109214765 24.0724999999999980 Si
atom 0.0000000000000000 0.0000000000000000 25.4299999999999997 Si
atom 1.9197949109214765 0.0000000000000000 26.7875000000000014 Si
