echo

start molecule

title "cyklopentan"
charge 0

geometry units angstroms print xyz autosym
   C       16.23264       -8.63039       -1.76773
   C       17.33671       -7.89999       -0.98814
   C       16.78869      -10.04231       -2.00750
   C       18.57101       -8.76910       -1.16799
   C       17.95998      -10.16067       -1.04559
   H       16.01831       -8.16889       -2.75637
   H       15.30862       -8.62454       -1.14926
   H       17.07902       -7.97330        0.09438
   H       17.44790       -6.82162       -1.22796
   H       16.03482      -10.85685       -1.97655
   H       17.24154      -10.04919       -3.02656
   H       18.98249       -8.62937       -2.19399
   H       19.37147       -8.55805       -0.42734
   H       17.58080      -10.31364       -0.00909
   H       18.65790      -10.98680       -1.29910
end

basis
  * library 6-31G*
end

dft
  xc b3lyp
  mult 1
end

task dft optimize
