echo

start molecule

memory total 40 gb

print low

title "VX"
charge 0

geometry units angstroms print xyz autosym
#  load format xyz VX.converged_geometry_blyp_tz2p-solvent-chcl3.xyz
  load format xyz VX.geom.xyz
end

basis spherical
  * library aug-cc-pv6z
end

dft
  direct
  grid fine
  xc b3lyp
  mult 1
# Reduce output during geometry optimization
  #noprint "final vectors analysis"
end

property
  giao
  shielding
end

cosmo
  solvent chcl3
end

task dft energy
task dft property

