&CONTROL
   calculation      = 'nscf'
   verbosity        = 'low'
   outdir           = './tmp'
   prefix           = 'El_Hg_NSCF'
   disk_io          = 'low'
   pseudo_dir       = './'
/
&SYSTEM
   ibrav            = 0
   nat              = 49
   ntyp             = 2
   ecutwfc          = 120
   nosym            = .true.
   noinv            = .true.
   occupations      = 'smearing'
   degauss          = 0.01
   smearing         = 'gauss'
   noncolin         = .true.
   input_dft        = 'XC-000I-000I-116L-133L-000I-000I'
   lspinorb         = .true.
   starting_magnetization(1) = 0.0
   starting_magnetization(2) = 0.0
/
&ELECTRONS
   electron_maxstep = 100
   conv_thr         = 1e-09
   mixing_beta      = 0.2
   diagonalization  = 'david'
   diago_full_acc   = .true.
   startingpot      = 'atomic'
   startingwfc      = 'atomic+random'
/
&IONS
/
&CELL
/
&FCP
/
&RISM
/
ATOMIC_SPECIES
Au  196.966569 Au_fr_pbesol.upf
Hg  200.592 Hg_fr_pbesol.upf

K_POINTS automatic
5 5 1  1 1 0

CELL_PARAMETERS angstrom
11.02283383665186 0.00000000000000 0.00000000000000
-5.51141691837378 9.52429139477604 0.00000000000000
0.00000000000000 0.00000000000000 19.70190048220000

ATOMIC_POSITIONS angstrom
Au  0.0351702172 -0.0165997008 9.8002803654  
Au  1.3780156465 0.7940533348 7.3339972867  
Au  -0.0378604544 1.6088494980 4.8821420625  
Au  2.7864784542 -0.0108056681 9.8145065850  
Au  4.1325416442 0.7945899067 7.3493255529  
Au  2.7172376536 1.6047816267 4.8721136363  
Au  5.5465485689 -0.0046036172 9.8236247096  
Au  6.8875344909 0.7955731494 7.3548186611  
Au  5.4725252981 1.6034918276 4.8781883157  
Au  8.3069289916 -0.0097381570 9.8237699507  
Au  9.6439107342 0.7941269754 7.3402348836  
Au  8.2288744923 1.6053967935 4.8880133883  
Au  -1.3468004909 2.3570281470 9.8226703725  
Au  -0.0019001685 3.1738597801 7.3687028890  
Au  -1.4153450490 3.9881576135 4.9106829299  
Au  1.4158092220 2.3571963294 9.8155173345  
Au  2.7559241049 3.1749082756 7.3528643315  
Au  1.3403804358 3.9869819968 4.9142330405  
Au  4.1700656967 2.3645337803 9.8117864483  
Au  5.5106200737 3.1748005234 7.3381475789  
Au  4.0946284884 3.9869527574 4.8811206308  
Au  6.9229276120 2.3646994539 9.8194535406  
Au  8.2641522596 3.1747971546 7.3539454649  
Au  6.8523527729 3.9880319194 4.8779536800  
Au  -2.7319833171 4.7388275669 9.8232674097  
Au  -1.3777009174 5.5564982943 7.3805853764  
Au  -2.7924516891 6.3674876175 4.9056295915  
Au  0.0354397548 4.7208204773 9.8260683191  
Au  1.3757339169 5.5567074678 7.3826656427  
Au  -0.0382424816 6.3675553109 4.9038845261  
Au  2.8016060582 4.7391685740 9.8270211166  
Au  4.1334122155 5.5552236863 7.3534572062  
Au  2.7175257241 6.3666398782 4.9154050426  
Au  5.5466302086 4.7435506627 9.8120366044  
Au  6.8875470153 5.5557171030 7.3491701379  
Au  5.4736383546 6.3681644604 4.8721171987  
Au  -4.1061025410 7.1267892916 9.8147775839  
Au  -2.7573833359 7.9374636255 7.3612370385  
Au  -4.1693691024 8.7472753314 4.8736817564  
Au  -1.3652289413 7.1387255357 9.8218085930  
Au  -0.0007988733 7.9356694096 7.3809242483  
Au  -1.4152367892 8.7474335322 4.9056949735  
Au  1.4352206702 7.1382183058 9.8263493432  
Au  2.7554357386 7.9385228455 7.3696633924  
Au  1.3385142061 8.7472403196 4.9118486525  
Au  4.1766251739 7.1275113025 9.8166532248  
Au  5.5110817671 7.9363001855 7.3345678271  
Au  4.0926583653 8.7466857714 4.8834484591  
Hg  0.0282962215 6.3394467444 12.1667942605  

