echo

start molecule

title "dikyslik_b3lyp_geomopt"
charge 0

geometry units angstroms print xyz autosym
   O       -2.86598       -0.87089       -1.77811
   O       -3.42908       -1.50862       -2.55325
end

basis
  * library 6-31G*
end

dft
  xc b3lyp
  mult 1
end

task dft optimize
