echo

start molecule

title "duren2"
charge 0

geometry units angstroms print xyz autosym
   C       -0.70978       -1.22824        0.00000
   C        0.70978       -1.22824        0.00000
   C       -0.70978        1.22824        0.00000
   C        0.70978        1.22824        0.00000
   C       -1.38865        0.00000        0.00000
   C        1.38865        0.00000        0.00000
   C       -1.57333       -2.46760        0.00000
   C        1.57333       -2.46760        0.00000
   C       -1.57333        2.46760        0.00000
   C        1.57333        2.46760        0.00000
   H       -2.47393        0.00000        0.00000
   H        2.47393        0.00000        0.00000
   H       -2.22163       -2.46129        0.90181
   H       -2.22163       -2.46129       -0.90181
   H       -1.03128       -3.42522        0.00000
   H        2.22163       -2.46129       -0.90181
   H        2.22163       -2.46129        0.90181
   H        1.03128       -3.42522        0.00000
   H       -2.22163        2.46129       -0.90181
   H       -2.22163        2.46129        0.90181
   H       -1.03128        3.42522        0.00000
   H        2.22163        2.46129        0.90181
   H        2.22163        2.46129       -0.90181
   H        1.03128        3.42522        0.00000
end

basis
  * library 6-31G**
end

dft
  xc b3lyp
  mult 1
end

driver
  maxiter 50
  xyz duren2_geom
end

property
  giao
  shielding
  spinspin
end

task dft optimize
task dft freq numerical
task dft property
