    11
 geometry
 U                     0.00000000     0.00000000     0.00000000
 O                     0.00000000     0.00000000     1.76656658
 O                     0.00000000     0.00000000    -1.76656658
 I                     0.00000000    -3.06526757     0.00000000
 I                     0.00000000     3.06526757     0.00000000
 O                     2.43165394     0.00000000     0.00000000
 O                    -2.43165394     0.00000000     0.00000000
 H                     2.98635064    -0.81745728     0.05619868
 H                     2.98635064     0.81745728    -0.05619868
 H                    -2.98635064    -0.81745728    -0.05619868
 H                    -2.98635064     0.81745728     0.05619868
