
 $BASIS GBASIS=N31 NGAUSS=6 NDFUNC=1 NPFUNC=1 $END
 $CONTRL SCFTYP=RHF RUNTYP=OPTIMIZE DFTTYP=B3LYP $END
 $STATPT OPTTOL=0.0001 NSTEP=20 $END

 $DATA 
 SF6 geom via MacMolPlt 
CNV 4

S    16.0     0.00000     0.00000     0.01767
F     9.0     0.00000     0.00000     1.63185
F     9.0     0.00000     0.00000    -1.73233
F     9.0     0.00000     1.75000     0.01767
 $END
