echo

start molecule

print low

title "Hg@Quartz ecp"
charge 0

geometry units angstroms print xyz autosym
  load format xyz HgQgeom.xyz
end

basis
 * library crenbl_ecp
end

ecp 
  Si library crenbl_ecp
  Hg library crenbl_ecp
end

dft
  xc b3lyp
  maxiter 100
end

driver
  maxiter 999
  xyz HgQgeomconv
end

task dft optimize

#task dft frequencies

