&CONTROL
   calculation 		= "vc-relax"
   etot_conv_thr =   1.0d-08
   forc_conv_thr =   1.0d-4
   verbosity        = 'low'
   tstress          = .true.
   tprnfor          = .true.
   disk_io          = 'minimal'
   pseudo_dir       = './'
   nstep = 250
/
&SYSTEM
   ibrav            = 0
   nat              = 54
   ntyp             = 1
   ecutwfc          = 80
   nosym            = .true.
   occupations      = 'smearing'
   degauss          = 0.02
   smearing         = 'gauss'
   noncolin         = .true.
   lspinorb         = .true.
   assume_isolated  = '2D'
   vdw_corr 		= 'DFT-D3'
/
&ELECTRONS
   electron_maxstep = 100
   conv_thr         = 1e-09
   mixing_beta      = 0.2
   diagonalization  = 'david'
   diago_full_acc   = .true.
   startingpot      = 'atomic'
   startingwfc      = 'atomic+random'
/
&IONS
  ion_dynamics = "bfgs"
/
&CELL
  cell_dynamics = "bfgs"
  cell_dofree = '2Dxy'
/

ATOMIC_SPECIES
Se  78.971 Se_r.upf

K_POINTS automatic
2 2 1  1 1 0

CELL_PARAMETERS angstrom
  13.049072483   0.000000000   0.000000000
   0.000000000  15.133480000   0.000000000
   0.000000000   0.000000000  17.485799789

ATOMIC_POSITIONS angstrom
Se               1.6508891315        1.6837469017        3.7833800375
Se               3.8846121100        1.6676742422        7.4135807050
Se               3.1642919993        3.3592241142        2.8896998588
Se               0.9895284932        3.3668771093        6.5958657333
Se               1.7096930034        0.0137894932        2.0725911422
Se               3.8256395834       -0.0020755387        5.7026810481
Se               6.0005782781        1.6837487630        3.7833778388
Se               8.2342986909        1.6676734238        7.4135733881
Se               7.5139785082        3.3592256570        2.8896932891
Se               5.3392254358        3.3668795009        6.5958657095
Se               6.0593769531        0.0137906478        2.0725890956
Se               8.1753278434       -0.0020756831        5.7026724870
Se              10.3502724514        1.6837465223        3.7833710186
Se              12.5839849837        1.6676731565        7.4135756357
Se              11.8636766103        3.3592235671        2.8896932602
Se               9.6889118106        3.3668788180        6.5958584323
Se              10.4090773600        0.0137883654        2.0725834475
Se              12.5250188432       -0.0020767356        5.7026753355
Se               1.6506855375        6.7280182182        3.7833117340
Se               3.8844164010        6.7120388315        7.4130657950
Se               3.1639926932        8.4039276883        2.8898890194
Se               0.9892799083        8.4112859418        6.5954656674
Se               1.7096973664        5.0585201930        2.0721673571
Se               3.8256998231        5.0421870158        5.7021722016
Se               6.0003746542        6.7280201319        3.7833094929
Se               8.2341031611        6.7120380389        7.4130584241
Se               7.5136792004        8.4039291964        2.8898825031
Se               5.3389768467        8.4112881738        6.5954657292
Se               6.0593813340        5.0585212997        2.0721652760
Se               8.1753881610        5.0421867095        5.7021635501
Se              10.3500690377        6.7280178865        3.7833025820
Se              12.5837896296        6.7120376941        7.4130607255
Se              11.8633773323        8.4039271251        2.8898823950
Se               9.6886632388        8.4112876051        6.5954585810
Se              10.4090817311        5.0585189658        2.0721595301
Se              12.5250792287        5.0421855690        5.7021665759
Se               1.6506538675       11.7727124308        3.7839128968
Se               3.8843330604       11.7561537433        7.4134269682
Se               3.1642562799       13.4480706906        2.8903550029
Se               0.9892088258       13.4555307936        6.5961781875
Se               1.7094434988       10.1032963955        2.0726019891
Se               3.8254503982       10.0868714579        5.7020420814
Se               6.0003428289       11.7727143070        3.7839105841
Se               8.2340197871       11.7561529084        7.4134197955
Se               7.5139427049       13.4480722022        2.8903484928
Se               5.3389059758       13.4555333515        6.5961784576
Se               6.0591274158       10.1032975129        2.0725999284
Se               8.1751388351       10.0868713895        5.7020333961
Se              10.3500372389       11.7727120227        3.7839038076
Se              12.5837060790       11.7561524693        7.4134218742
Se              11.8636409029       13.4480700929        2.8903483656
Se               9.6885923495       13.4555325047        6.5961712838
Se              10.4088279598       10.1032953896        2.0725941285
Se              12.5248298673       10.0868701691        5.7020361416
