!   File created by MacMolPlt 7.7.3
 $CONTRL SCFTYP=RHF RUNTYP=OPTIMIZE DFTTYP=B3LYP MAXIT=30 MULT=1 $END
 $SYSTEM TIMLIM=525600 MEMORY=1000079 $END
 $BASIS GBASIS=N31 NGAUSS=6 $END
 $SCF DIRSCF=.TRUE. $END
 $STATPT OPTTOL=0.0001 NSTEP=20 $END
 $DATA 
Title
C1
O     8.0    -0.12235     1.09479     0.68337
O     8.0     1.29542    -0.08308    -1.37115
O     8.0    -0.90178    -2.38910     0.27341
O     8.0     3.85143     0.17087    -0.32354
O     8.0    -3.07129    -0.53540    -0.58001
O     8.0    -2.01401     2.17318    -0.07501
C     6.0     0.29854    -0.27947     0.80167
C     6.0     1.55965    -0.47525    -0.02468
C     6.0    -0.87126    -1.02594     0.29828
C     6.0     2.71009     0.37305     0.50303
C     6.0    -1.85194    -0.21191    -0.07914
C     6.0    -1.38441     1.15586     0.15550
H     1.0     0.47660    -0.49627     1.86090
H     1.0     1.86027    -1.52846    -0.05205
H     1.0     2.47216     1.44121     0.46897
H     1.0     2.96664     0.09311     1.52950
H     1.0     1.06031     0.86058    -1.36820
H     1.0    -0.06777    -2.70823     0.65893
H     1.0     4.56735     0.71929     0.04031
H     1.0    -3.54480     0.29827    -0.74551
 $END
