!PAL8
!B3LYP DEF2-TZVP CPCM(WATER)
%TDDFT
   NROOTS   30
END
* XYZfile 0 1 MA.adf_geom.xyz
