 argument  1 = ethanol_opt.nwi
                                         
                                         


             Northwest Computational Chemistry Package (NWChem) 7.3.0
             --------------------------------------------------------


                    Environmental Molecular Sciences Laboratory
                       Pacific Northwest National Laboratory
                                Richland, WA 99352

                              Copyright (c) 1994-2025
                       Pacific Northwest National Laboratory
                            Battelle Memorial Institute

             NWChem is an open-source computational chemistry package
                        distributed under the terms of the
                      Educational Community License (ECL) 2.0
             A copy of the license is included with this distribution
                              in the LICENSE.TXT file

                                  ACKNOWLEDGMENT
                                  --------------

            This software and its documentation were developed at the
            EMSL at Pacific Northwest National Laboratory, a multiprogram
            national laboratory, operated for the U.S. Department of Energy
            by Battelle under Contract Number DE-AC05-76RL01830. Support
            for this work was provided by the Department of Energy Office
            of Biological and Environmental Research, Office of Basic
            Energy Sciences, and the Office of Advanced Scientific Computing.


           Job information
           ---------------

    hostname        = MIRO
    program         = nwchem
    date            = Tue Aug 25 08:33:13 2026

    compiled        = Wed_Dec_10_07:16:07_2025
    source          = /home/conda/feedstock_root/build_artifacts/bld/rattler-build_nwchem_1765343033/work
    nwchem branch   = 7.3.0
    nwchem revision = 3272822
    ga revision     = 5.9.2
    use scalapack   = T
    input           = ethanol_opt.nwi
    prefix          = ethanol_opt.
    data base       = ./ethanol_opt.db
    status          = startup
    nproc           =        1
    time left       =     -1s



           Memory information
           ------------------

    heap     =     26214400 doubles =      200.0 Mbytes
    stack    =     26214397 doubles =      200.0 Mbytes
    global   =     52428800 doubles =      400.0 Mbytes (distinct from heap & stack)
    total    =    104857597 doubles =      800.0 Mbytes
    verify   = yes
    hardfail = no 


           Directory information
           ---------------------

  0 permanent = .
  0 scratch   = .




                                NWChem Input Module
                                -------------------



 Scaling coordinates for geometry "geometry" by  1.889725989
 (inverse scale =  0.529177249)

 CS  symmetry detected

          ------
          auto-z
          ------
  no constraints, skipping    0.0000000000000000     
  no constraints, skipping    0.0000000000000000     


                             Geometry "geometry" -> ""
                             -------------------------

 Output coordinates in angstroms (scale by  1.889725989 to convert to a.u.)

  No.       Tag          Charge          X              Y              Z
 ---- ---------------- ---------- -------------- -------------- --------------
    1 C                    6.0000     0.21158272     1.41659508     0.00000000
    2 C                    6.0000    -0.39641567     0.04534093     0.00000000
    3 H                    1.0000     0.45738830    -0.98955945     0.00000000
    4 H                    1.0000    -0.08336909     1.98492899     0.90000000
    5 H                    1.0000    -0.08336909     1.98492899    -0.90000000
    6 H                    1.0000     1.37930200     1.33639737     0.00000000
    7 H                    1.0000    -0.97510007    -0.02624377    -0.90000000
    8 H                    1.0000    -0.97510007    -0.02624377     0.90000000
    9 O                    8.0000     0.17365571    -1.62947805     0.00000000

      Atomic Mass 
      ----------- 

      C                 12.000000
      H                  1.007825
      O                 15.994910


 Effective nuclear repulsion energy (a.u.)      77.9263127324

            Nuclear Dipole moment (a.u.) 
            ----------------------------
        X                 Y               Z
 ---------------- ---------------- ----------------
    -0.0000000000     0.0000000000     0.0000000000

      Symmetry information
      --------------------

 Group name             Cs        
 Group number              2
 Group order               2
 No. of unique centers     7

      Symmetry unique atoms

     1    2    3    4    6    7    9



                                Z-matrix (autoz)
                                -------- 

 Units are Angstrom for bonds and degrees for angles

      Type          Name      I     J     K     L     M      Value
      ----------- --------  ----- ----- ----- ----- ----- ----------
    1 Stretch                  1     2                       1.50000
    2 Stretch                  1     4                       1.10454
    3 Stretch                  1     5                       1.10454
    4 Stretch                  1     6                       1.17047
    5 Stretch                  2     3                       1.34164
    6 Stretch                  2     7                       1.07238
    7 Stretch                  2     8                       1.07238
    8 Stretch                  3     9                       0.70000
    9 Bend                     1     2     3               116.56505
   10 Bend                     1     2     7               106.24537
   11 Bend                     1     2     8               106.24537
   12 Bend                     2     1     4               111.23186
   13 Bend                     2     1     5               111.23186
   14 Bend                     2     1     6               109.98311
   15 Bend                     2     3     9               116.56505
   16 Bend                     3     2     7               106.97295
   17 Bend                     3     2     8               106.97295
   18 Bend                     4     1     5               109.13947
   19 Bend                     4     1     6               107.55761
   20 Bend                     5     1     6               107.55761
   21 Bend                     7     2     8               114.12292
   22 Torsion                  1     2     3     9         180.00000
   23 Torsion                  3     2     1     4        -119.05460
   24 Torsion                  3     2     1     5         119.05460
   25 Torsion                  3     2     1     6           0.00000
   26 Torsion                  4     1     2     7         121.89079
   27 Torsion                  4     1     2     8          -0.00000
   28 Torsion                  5     1     2     7           0.00000
   29 Torsion                  5     1     2     8        -121.89079
   30 Torsion                  6     1     2     7        -119.05460
   31 Torsion                  6     1     2     8         119.05460
   32 Torsion                  7     2     3     9         -61.33923
   33 Torsion                  8     2     3     9          61.33923


            XYZ format geometry
            -------------------
     9
 geometry
 C                     0.21158272     1.41659508     0.00000000
 C                    -0.39641567     0.04534093     0.00000000
 H                     0.45738830    -0.98955945     0.00000000
 H                    -0.08336909     1.98492899     0.90000000
 H                    -0.08336909     1.98492899    -0.90000000
 H                     1.37930200     1.33639737     0.00000000
 H                    -0.97510007    -0.02624377    -0.90000000
 H                    -0.97510007    -0.02624377     0.90000000
 O                     0.17365571    -1.62947805     0.00000000

 ==============================================================================
                                internuclear distances
 ------------------------------------------------------------------------------
       center one      |      center two      | atomic units |  angstroms
 ------------------------------------------------------------------------------
    2 C                |   1 C                |     2.83459  |     1.50000
    4 H                |   1 C                |     2.08727  |     1.10454
    5 H                |   1 C                |     2.08727  |     1.10454
    6 H                |   1 C                |     2.21187  |     1.17047
    7 H                |   2 C                |     2.02651  |     1.07238
    8 H                |   2 C                |     2.02651  |     1.07238
    9 O                |   3 H                |     1.32281  |     0.70000
 ------------------------------------------------------------------------------
                         number of included internuclear distances:          7
 ==============================================================================



 ==============================================================================
                                 internuclear angles
 ------------------------------------------------------------------------------
        center 1       |       center 2       |       center 3       |  degrees
 ------------------------------------------------------------------------------
    2 C                |   1 C                |   4 H                |   111.23
    2 C                |   1 C                |   5 H                |   111.23
    2 C                |   1 C                |   6 H                |   109.98
    4 H                |   1 C                |   5 H                |   109.14
    4 H                |   1 C                |   6 H                |   107.56
    5 H                |   1 C                |   6 H                |   107.56
    1 C                |   2 C                |   7 H                |   106.25
    1 C                |   2 C                |   8 H                |   106.25
    7 H                |   2 C                |   8 H                |   114.12
 ------------------------------------------------------------------------------
                            number of included internuclear angles:          9
 ==============================================================================



  library name resolved from: environment
  library file name is: </home/miroi/miniconda3/envs/mace_env/share/nwchem/libraries/>
  


 Summary of "ao basis" -> "" (cartesian)
 ------------------------------------------------------------------------------
       Tag                 Description            Shells   Functions and Types
 ---------------- ------------------------------  ------  ---------------------
 *                          6-311G**                  on all atoms 



                                 NWChem DFT Module
                                 -----------------


                      Basis "ao basis" -> "ao basis" (cartesian)
                      -----
  C (Carbon)
  ----------
            Exponent  Coefficients 
       -------------- ---------------------------------------------------------
  1 S  4.56324000E+03  0.001967
  1 S  6.82024000E+02  0.015231
  1 S  1.54973000E+02  0.076127
  1 S  4.44553000E+01  0.260801
  1 S  1.30290000E+01  0.616462
  1 S  1.82773000E+00  0.221006

  2 S  2.09642000E+01  0.114660
  2 S  4.80331000E+00  0.919999
  2 S  1.45933000E+00 -0.003031

  3 P  2.09642000E+01  0.040249
  3 P  4.80331000E+00  0.237594
  3 P  1.45933000E+00  0.815854

  4 S  4.83456000E-01  1.000000

  5 P  4.83456000E-01  1.000000

  6 S  1.45585000E-01  1.000000

  7 P  1.45585000E-01  1.000000

  8 D  6.26000000E-01  1.000000

  H (Hydrogen)
  ------------
            Exponent  Coefficients 
       -------------- ---------------------------------------------------------
  1 S  3.38650000E+01  0.025494
  1 S  5.09479000E+00  0.190373
  1 S  1.15879000E+00  0.852161

  2 S  3.25840000E-01  1.000000

  3 S  1.02741000E-01  1.000000

  4 P  7.50000000E-01  1.000000

  O (Oxygen)
  ----------
            Exponent  Coefficients 
       -------------- ---------------------------------------------------------
  1 S  8.58850000E+03  0.001895
  1 S  1.29723000E+03  0.014386
  1 S  2.99296000E+02  0.070732
  1 S  8.73771000E+01  0.240001
  1 S  2.56789000E+01  0.594797
  1 S  3.74004000E+00  0.280802

  2 S  4.21175000E+01  0.113889
  2 S  9.62837000E+00  0.920811
  2 S  2.85332000E+00 -0.003274

  3 P  4.21175000E+01  0.036511
  3 P  9.62837000E+00  0.237153
  3 P  2.85332000E+00  0.819702

  4 S  9.05661000E-01  1.000000

  5 P  9.05661000E-01  1.000000

  6 S  2.55611000E-01  1.000000

  7 P  2.55611000E-01  1.000000

  8 D  1.29200000E+00  1.000000



 Summary of "ao basis" -> "ao basis" (cartesian)
 ------------------------------------------------------------------------------
       Tag                 Description            Shells   Functions and Types
 ---------------- ------------------------------  ------  ---------------------
 C                          6-311G**                 8       19   4s3p1d
 H                          6-311G**                 4        6   3s1p
 O                          6-311G**                 8       19   4s3p1d




 Summary of "ao basis" -> "ao basis" (cartesian)
 ------------------------------------------------------------------------------
       Tag                 Description            Shells   Functions and Types
 ---------------- ------------------------------  ------  ---------------------
 C                          6-311G**                 8       19   4s3p1d
 H                          6-311G**                 4        6   3s1p
 O                          6-311G**                 8       19   4s3p1d


      Symmetry analysis of basis
      --------------------------

        a'         64
        a"         29

  Caching 1-el integrals 

            General Information
            -------------------
          SCF calculation type: DFT
          Wavefunction type:  closed shell.
          No. of atoms     :     9
          No. of electrons :    26
           Alpha electrons :    13
            Beta electrons :    13
          Charge           :     0
          Spin multiplicity:     1
          Use of symmetry is: on ; symmetry adaption is: on 
          Maximum number of iterations:  50
          AO basis - number of functions:    93
                     number of shells:    48
          Convergence on energy requested:  1.00D-07
          Convergence on density requested:  1.00D-06
          Convergence on gradient requested:  5.00D-04

              XC Information
              --------------
                         PBE0 Method XC Functional
                     Hartree-Fock (Exact) Exchange  0.250          
          PerdewBurkeErnzerhof Exchange Functional  0.750          
            Perdew 1991 LDA Correlation Functional  1.000 local    
           PerdewBurkeErnz. Correlation Functional  1.000 non-local

             Grid Information
             ----------------
          Grid used for XC integration:  medium    
          Radial quadrature: Mura-Knowles        
          Angular quadrature: Lebedev. 
          Tag              B.-S. Rad. Rad. Pts. Rad. Cut. Ang. Pts.
          ---              ---------- --------- --------- ---------
          C                   0.70       49           8.0       434
          H                   0.35       45          10.0       434
          O                   0.60       49          10.0       434
          Grid pruning is: on 
          Number of quadrature shells:   327
          Spatial weights used:  Erf1

          Convergence Information
          -----------------------
          Convergence aids based upon iterative change in 
          total energy or number of iterations. 
          Levelshifting, if invoked, occurs when the 
          HOMO/LUMO gap drops below (HL_TOL):  1.00D-02
          DIIS, if invoked, will attempt to extrapolate 
          using up to (NFOCK): 10 stored Fock matrices.

                    Damping( 0%)  Levelshifting(0.5)       DIIS
                  --------------- ------------------- ---------------
          dE  on:    start            ASAP                start   
          dE off:    2 iters         50 iters            50 iters 


      Screening Tolerance Information
      -------------------------------
          Density screening/tol_rho:  1.00D-10
          AO Gaussian exp screening on grid/accAOfunc:  16
          CD Gaussian exp screening on grid/accCDfunc:  20
          XC Gaussian exp screening on grid/accXCfunc:  20
          Schwarz screening/accCoul:  1.00D-08


      Superposition of Atomic Density Guess
      -------------------------------------

 Sum of atomic energies:        -153.11208536

      Non-variational initial energy
      ------------------------------

 Total energy =    -154.734824
 1-e energy   =    -359.948811
 2-e energy   =     127.287674
 HOMO         =      -0.394424
 LUMO         =      -0.100359


      Symmetry analysis of molecular orbitals - initial
      -------------------------------------------------

  Numbering of irreducible representations: 

     1 a'          2 a"      

  Orbital symmetries:

     1 a'          2 a'          3 a'          4 a'          5 a'      
     6 a'          7 a'          8 a"          9 a'         10 a'      
    11 a"         12 a'         13 a"         14 a'         15 a'      
    16 a'         17 a"         18 a'         19 a"         20 a'      
    21 a'         22 a"         23 a'      

   Time after variat. SCF:      0.1
   Time prior to 1st pass:      0.1

 Grid_pts file          = ./ethanol_opt.gridpts.0
 Record size in doubles =  12289        No. of grid_pts per rec  =   3070
 Max. records in memory =     52        Max. recs in file   = *********


           Memory utilization after 1st SCF pass: 
           Heap Space remaining (MW):        0.00                  62
          Stack Space remaining (MW):       26.21            26213652

   convergence    iter        energy       DeltaE   RMS-Dens  Diis-err    time
 ---------------- ----- ----------------- --------- --------- ---------  ------
 d= 0,ls=0.0,diis     1   -154.4601643959 -2.32D+02  2.14D-02  1.29D+00     0.6
 d= 0,ls=0.0,diis     2   -153.9773589728  4.83D-01  1.55D-02  5.73D+00     1.1
 d= 0,ls=0.0,diis     3   -154.6031752019 -6.26D-01  8.59D-04  1.43D-02     1.5
 d= 0,ls=0.0,diis     4   -154.6045161574 -1.34D-03  3.92D-04  3.00D-03     1.9
 d= 0,ls=0.0,diis     5   -154.6048526206 -3.36D-04  9.32D-05  2.00D-04     2.4
  Resetting Diis
 d= 0,ls=0.0,diis     6   -154.6048725421 -1.99D-05  1.88D-05  7.91D-06     2.8
 d= 0,ls=0.0,diis     7   -154.6048732865 -7.44D-07  1.86D-05  1.25D-06     3.3
 d= 0,ls=0.0,diis     8   -154.6048729758  3.11D-07  1.14D-05  4.43D-06     3.8
 d= 0,ls=0.0,diis     9   -154.6048734341 -4.58D-07  1.42D-06  7.99D-08     4.2
 d= 0,ls=0.0,diis    10   -154.6048734421 -7.95D-09  5.07D-07  1.65D-09     4.7


         Total DFT energy =     -154.604873442086
      One electron energy =     -363.156834468874
           Coulomb energy =      152.215103447030
    Exchange-Corr. energy =      -21.589455152688
 Nuclear repulsion energy =       77.926312732447

 Numeric. integr. density =       25.999994379685

     Total iterative time =      4.5s



                  Occupations of the irreducible representations
                  ----------------------------------------------

                     irrep           alpha         beta
                     --------     --------     --------
                     a'               10.0         10.0
                     a"                3.0          3.0


                       DFT Final Molecular Orbital Analysis
                       ------------------------------------

 Vector    1  Occ=2.000000D+00  E=-1.914269D+01  Symmetry=a'
              MO Center=  1.7D-01, -1.6D+00, -5.6D-20, r^2= 1.5D-02
   Bfn.  Coefficient  Atom+Function         Bfn.  Coefficient  Atom+Function  
  ----- ------------  ---------------      ----- ------------  ---------------
    75      0.551906  9 O  s                 76      0.466522  9 O  s          

 Vector    2  Occ=2.000000D+00  E=-1.029727D+01  Symmetry=a'
              MO Center= -4.0D-01,  4.5D-02,  1.2D-17, r^2= 2.8D-02
   Bfn.  Coefficient  Atom+Function         Bfn.  Coefficient  Atom+Function  
  ----- ------------  ---------------      ----- ------------  ---------------
    20      0.563946  2 C  s                 21      0.460113  2 C  s          

 Vector    3  Occ=2.000000D+00  E=-1.026635D+01  Symmetry=a'
              MO Center=  2.1D-01,  1.4D+00, -4.6D-18, r^2= 2.8D-02
   Bfn.  Coefficient  Atom+Function         Bfn.  Coefficient  Atom+Function  
  ----- ------------  ---------------      ----- ------------  ---------------
     1      0.563973  1 C  s                  2      0.460037  1 C  s          

 Vector    4  Occ=2.000000D+00  E=-1.094254D+00  Symmetry=a'
              MO Center=  2.4D-01, -1.3D+00,  1.1D-15, r^2= 4.8D-01
   Bfn.  Coefficient  Atom+Function         Bfn.  Coefficient  Atom+Function  
  ----- ------------  ---------------      ----- ------------  ---------------
    80      0.478885  9 O  s                 84      0.294341  9 O  s          
    39      0.193177  3 H  s                 76     -0.171860  9 O  s          
    82      0.118904  9 O  py                40      0.115731  3 H  s          
    75     -0.106187  9 O  s                 25      0.104399  2 C  s          
    78      0.090204  9 O  py                27     -0.045117  2 C  py         

 Vector    5  Occ=2.000000D+00  E=-8.155495D-01  Symmetry=a'
              MO Center= -8.6D-02,  8.4D-01, -2.5D-16, r^2= 1.4D+00
   Bfn.  Coefficient  Atom+Function         Bfn.  Coefficient  Atom+Function  
  ----- ------------  ---------------      ----- ------------  ---------------
     6      0.353201  1 C  s                 25      0.306846  2 C  s          
    10      0.197031  1 C  s                 29      0.174034  2 C  s          
     2     -0.134834  1 C  s                 21     -0.115052  2 C  s          
    80     -0.111880  9 O  s                 84     -0.089276  9 O  s          
     1     -0.086747  1 C  s                 27      0.078579  2 C  py         

 Vector    6  Occ=2.000000D+00  E=-6.436922D-01  Symmetry=a'
              MO Center= -1.7D-01,  7.1D-01,  9.3D-18, r^2= 2.3D+00
   Bfn.  Coefficient  Atom+Function         Bfn.  Coefficient  Atom+Function  
  ----- ------------  ---------------      ----- ------------  ---------------
    25      0.326696  2 C  s                  6     -0.266183  1 C  s          
    29      0.258719  2 C  s                 10     -0.231028  1 C  s          
    80     -0.126225  9 O  s                 21     -0.120015  2 C  s          
    84     -0.113378  9 O  s                 64      0.104090  7 H  s          
    70      0.104090  8 H  s                  2      0.100341  1 C  s          

 Vector    7  Occ=2.000000D+00  E=-5.109029D-01  Symmetry=a"
              MO Center= -3.2D-01,  6.3D-01, -2.1D-14, r^2= 1.9D+00
   Bfn.  Coefficient  Atom+Function         Bfn.  Coefficient  Atom+Function  
  ----- ------------  ---------------      ----- ------------  ---------------
    28      0.247047  2 C  pz                 9      0.194891  1 C  pz         
    24      0.161286  2 C  pz                32      0.147526  2 C  pz         
    64     -0.131857  7 H  s                 70      0.131857  8 H  s          
     5      0.126990  1 C  pz                13      0.116878  1 C  pz         
    46      0.111405  4 H  s                 52     -0.111405  5 H  s          

 Vector    8  Occ=2.000000D+00  E=-4.883895D-01  Symmetry=a'
              MO Center=  5.8D-02, -4.5D-01,  1.6D-14, r^2= 2.9D+00
   Bfn.  Coefficient  Atom+Function         Bfn.  Coefficient  Atom+Function  
  ----- ------------  ---------------      ----- ------------  ---------------
    84      0.356536  9 O  s                 80      0.228172  9 O  s          
    82     -0.202255  9 O  py                40     -0.172658  3 H  s          
    26     -0.169539  2 C  px                78     -0.149369  9 O  py         
     7     -0.121424  1 C  px                86     -0.117865  9 O  py         
    30     -0.115194  2 C  px                39     -0.114390  3 H  s          

 Vector    9  Occ=2.000000D+00  E=-4.387764D-01  Symmetry=a'
              MO Center=  1.2D-01,  7.1D-02, -1.6D-15, r^2= 3.4D+00
   Bfn.  Coefficient  Atom+Function         Bfn.  Coefficient  Atom+Function  
  ----- ------------  ---------------      ----- ------------  ---------------
    84      0.272326  9 O  s                  8     -0.222951  1 C  py         
    82     -0.213813  9 O  py                80      0.186100  9 O  s          
    78     -0.155513  9 O  py                27      0.153642  2 C  py         
    86     -0.154169  9 O  py                12     -0.152406  1 C  py         
     4     -0.145188  1 C  py                40     -0.129288  3 H  s          

 Vector   10  Occ=2.000000D+00  E=-4.204373D-01  Symmetry=a'
              MO Center=  2.4D-01,  5.9D-01,  3.9D-15, r^2= 2.4D+00
   Bfn.  Coefficient  Atom+Function         Bfn.  Coefficient  Atom+Function  
  ----- ------------  ---------------      ----- ------------  ---------------
     7      0.245380  1 C  px                58      0.199282  6 H  s          
    27     -0.190437  2 C  py                11      0.175097  1 C  px         
     3      0.158400  1 C  px                81     -0.152011  9 O  px         
    57      0.132854  6 H  s                 31     -0.131257  2 C  py         
    23     -0.122516  2 C  py                85     -0.116888  9 O  px         

 Vector   11  Occ=2.000000D+00  E=-4.014778D-01  Symmetry=a"
              MO Center= -1.8D-01,  9.3D-01, -3.6D-18, r^2= 2.4D+00
   Bfn.  Coefficient  Atom+Function         Bfn.  Coefficient  Atom+Function  
  ----- ------------  ---------------      ----- ------------  ---------------
     9      0.234540  1 C  pz                28     -0.194087  2 C  pz         
    13      0.190668  1 C  pz                46      0.175464  4 H  s          
    52     -0.175464  5 H  s                 32     -0.167671  2 C  pz         
     5      0.156228  1 C  pz                24     -0.128409  2 C  pz         
    64      0.121102  7 H  s                 70     -0.121102  8 H  s          

 Vector   12  Occ=2.000000D+00  E=-3.049856D-01  Symmetry=a'
              MO Center=  2.1D-02, -8.7D-01, -3.7D-15, r^2= 2.0D+00
   Bfn.  Coefficient  Atom+Function         Bfn.  Coefficient  Atom+Function  
  ----- ------------  ---------------      ----- ------------  ---------------
    81      0.345231  9 O  px                85      0.313293  9 O  px         
    77      0.238614  9 O  px                31      0.204953  2 C  py         
    26     -0.194033  2 C  px                30     -0.173036  2 C  px         
    10     -0.166655  1 C  s                 41      0.158027  3 H  s          
    22     -0.128975  2 C  px                11      0.107885  1 C  px         

 Vector   13  Occ=2.000000D+00  E=-2.775320D-01  Symmetry=a"
              MO Center=  1.1D-01, -1.4D+00,  9.5D-16, r^2= 1.1D+00
   Bfn.  Coefficient  Atom+Function         Bfn.  Coefficient  Atom+Function  
  ----- ------------  ---------------      ----- ------------  ---------------
    87      0.438911  9 O  pz                83      0.413469  9 O  pz         
    79      0.292329  9 O  pz                64      0.135936  7 H  s          
    70     -0.135936  8 H  s                 28     -0.081970  2 C  pz         
    24     -0.063793  2 C  pz                63      0.049106  7 H  s          
    69     -0.049106  8 H  s                 44      0.047224  3 H  pz         

 Vector   14  Occ=0.000000D+00  E=-5.696477D-02  Symmetry=a'
              MO Center=  5.7D-02, -2.9D-01, -2.3D-15, r^2= 2.4D+00
   Bfn.  Coefficient  Atom+Function         Bfn.  Coefficient  Atom+Function  
  ----- ------------  ---------------      ----- ------------  ---------------
    30      0.363795  2 C  px                29      0.324142  2 C  s          
    10     -0.308766  1 C  s                 86     -0.288531  9 O  py         
    84     -0.259464  9 O  s                 82     -0.238633  9 O  py         
    41      0.234657  3 H  s                 26      0.233256  2 C  px         
    27     -0.226205  2 C  py                25      0.204068  2 C  s          

 Vector   15  Occ=0.000000D+00  E= 3.835984D-02  Symmetry=a'
              MO Center= -6.5D-03,  1.3D+00, -1.3D-16, r^2= 5.5D+00
   Bfn.  Coefficient  Atom+Function         Bfn.  Coefficient  Atom+Function  
  ----- ------------  ---------------      ----- ------------  ---------------
    10      1.495890  1 C  s                 29      0.984761  2 C  s          
    47     -0.741838  4 H  s                 53     -0.741838  5 H  s          
    59     -0.686809  6 H  s                 65     -0.498139  7 H  s          
    71     -0.498139  8 H  s                 12      0.399933  1 C  py         
    11      0.192316  1 C  px                30     -0.184280  2 C  px         

 Vector   16  Occ=0.000000D+00  E= 7.550078D-02  Symmetry=a"
              MO Center= -6.2D-01,  1.2D+00, -1.1D-13, r^2= 5.3D+00
   Bfn.  Coefficient  Atom+Function         Bfn.  Coefficient  Atom+Function  
  ----- ------------  ---------------      ----- ------------  ---------------
    47      1.101338  4 H  s                 53     -1.101338  5 H  s          
    65     -0.893979  7 H  s                 71      0.893979  8 H  s          
    13     -0.750735  1 C  pz                32     -0.577889  2 C  pz         
     9     -0.146221  1 C  pz                 5     -0.129848  1 C  pz         
    28     -0.111010  2 C  pz                24     -0.099364  2 C  pz         

 Vector   17  Occ=0.000000D+00  E= 8.131894D-02  Symmetry=a'
              MO Center=  4.7D-01,  7.5D-01,  1.1D-13, r^2= 5.9D+00
   Bfn.  Coefficient  Atom+Function         Bfn.  Coefficient  Atom+Function  
  ----- ------------  ---------------      ----- ------------  ---------------
    59      1.441539  6 H  s                 29      1.258717  2 C  s          
    65     -0.859219  7 H  s                 71     -0.859219  8 H  s          
    10     -0.828714  1 C  s                 11     -0.603987  1 C  px         
    12      0.295295  1 C  py                30     -0.256007  2 C  px         
    41      0.214637  3 H  s                  7     -0.143901  1 C  px         

 Vector   18  Occ=0.000000D+00  E= 1.143966D-01  Symmetry=a'
              MO Center= -1.6D-02,  1.1D+00,  1.9D-16, r^2= 6.7D+00
   Bfn.  Coefficient  Atom+Function         Bfn.  Coefficient  Atom+Function  
  ----- ------------  ---------------      ----- ------------  ---------------
    29      1.619564  2 C  s                 10     -1.191068  1 C  s          
    47      1.084721  4 H  s                 53      1.084721  5 H  s          
    59     -0.802513  6 H  s                 65     -0.729061  7 H  s          
    71     -0.729061  8 H  s                 11      0.709028  1 C  px         
    41     -0.682222  3 H  s                 84      0.403018  9 O  s          

 Vector   19  Occ=0.000000D+00  E= 1.644196D-01  Symmetry=a"
              MO Center= -8.0D-01,  8.8D-01, -1.8D-15, r^2= 6.6D+00
   Bfn.  Coefficient  Atom+Function         Bfn.  Coefficient  Atom+Function  
  ----- ------------  ---------------      ----- ------------  ---------------
    65      1.635021  7 H  s                 71     -1.635021  8 H  s          
    47      1.425518  4 H  s                 53     -1.425518  5 H  s          
    32      1.054205  2 C  pz                13     -0.912569  1 C  pz         
    24      0.137818  2 C  pz                28      0.134479  2 C  pz         
     5     -0.115067  1 C  pz                 9     -0.115396  1 C  pz         

 Vector   20  Occ=0.000000D+00  E= 2.090396D-01  Symmetry=a'
              MO Center=  4.7D-01,  1.7D-01,  3.1D-15, r^2= 5.6D+00
   Bfn.  Coefficient  Atom+Function         Bfn.  Coefficient  Atom+Function  
  ----- ------------  ---------------      ----- ------------  ---------------
    41      2.011805  3 H  s                 12     -1.543911  1 C  py         
    29     -1.512347  2 C  s                 10      1.220420  1 C  s          
    30     -1.112516  2 C  px                65     -0.867639  7 H  s          
    71     -0.867639  8 H  s                 84     -0.837661  9 O  s          
    59     -0.745179  6 H  s                 31     -0.574840  2 C  py         

 Vector   21  Occ=0.000000D+00  E= 2.416385D-01  Symmetry=a'
              MO Center=  4.5D-01,  3.5D-01, -3.6D-15, r^2= 4.4D+00
   Bfn.  Coefficient  Atom+Function         Bfn.  Coefficient  Atom+Function  
  ----- ------------  ---------------      ----- ------------  ---------------
    41      1.750299  3 H  s                 31      1.596557  2 C  py         
    12      1.479669  1 C  py                10     -1.210146  1 C  s          
    29      1.106158  2 C  s                 11      1.007055  1 C  px         
    59     -0.607469  6 H  s                 84     -0.343966  9 O  s          
    85     -0.309886  9 O  px                27      0.303439  2 C  py         

 Vector   22  Occ=0.000000D+00  E= 2.722293D-01  Symmetry=a"
              MO Center=  1.3D-01,  1.0D+00,  2.9D-15, r^2= 3.5D+00
   Bfn.  Coefficient  Atom+Function         Bfn.  Coefficient  Atom+Function  
  ----- ------------  ---------------      ----- ------------  ---------------
    46     -0.937928  4 H  s                 52      0.937928  5 H  s          
    13      0.872893  1 C  pz                64      0.627457  7 H  s          
    70     -0.627457  8 H  s                 47      0.433158  4 H  s          
    53     -0.433158  5 H  s                 32      0.389875  2 C  pz         
    65     -0.263969  7 H  s                 71      0.263969  8 H  s          

 Vector   23  Occ=0.000000D+00  E= 3.030268D-01  Symmetry=a'
              MO Center=  2.4D-01,  1.4D+00,  3.2D-14, r^2= 3.7D+00
   Bfn.  Coefficient  Atom+Function         Bfn.  Coefficient  Atom+Function  
  ----- ------------  ---------------      ----- ------------  ---------------
    58      1.303430  6 H  s                 11     -1.017903  1 C  px         
    59     -0.892781  6 H  s                 41      0.618556  3 H  s          
    46     -0.583033  4 H  s                 52     -0.583033  5 H  s          
    12      0.506971  1 C  py                84     -0.447111  9 O  s          
    47      0.246114  4 H  s                 53      0.246114  5 H  s          

 Vector   24  Occ=0.000000D+00  E= 3.371534D-01  Symmetry=a'
              MO Center= -5.6D-01,  2.0D-01,  2.1D-15, r^2= 4.0D+00
   Bfn.  Coefficient  Atom+Function         Bfn.  Coefficient  Atom+Function  
  ----- ------------  ---------------      ----- ------------  ---------------
    30      1.183415  2 C  px                31      1.027704  2 C  py         
    10     -0.806496  1 C  s                 84      0.740495  9 O  s          
    64      0.734869  7 H  s                 70      0.734869  8 H  s          
    46      0.376882  4 H  s                 52      0.376882  5 H  s          
    58      0.373737  6 H  s                 11     -0.343854  1 C  px         

 Vector   25  Occ=0.000000D+00  E= 4.078848D-01  Symmetry=a'
              MO Center= -7.8D-01,  4.1D-01, -3.0D-12, r^2= 3.1D+00
   Bfn.  Coefficient  Atom+Function         Bfn.  Coefficient  Atom+Function  
  ----- ------------  ---------------      ----- ------------  ---------------
    31      1.598018  2 C  py                40      1.484935  3 H  s          
    30     -1.393174  2 C  px                29      0.996695  2 C  s          
    11      0.990447  1 C  px                10     -0.890158  1 C  s          
    64     -0.805851  7 H  s                 70     -0.805851  8 H  s          
    84     -0.665286  9 O  s                 46      0.482635  4 H  s          

 Vector   26  Occ=0.000000D+00  E= 4.115443D-01  Symmetry=a"
              MO Center=  9.0D-02,  3.4D-01,  3.0D-12, r^2= 3.7D+00
   Bfn.  Coefficient  Atom+Function         Bfn.  Coefficient  Atom+Function  
  ----- ------------  ---------------      ----- ------------  ---------------
    32      2.037175  2 C  pz                13     -1.720822  1 C  pz         
    64      1.215449  7 H  s                 70     -1.215449  8 H  s          
    46      0.820456  4 H  s                 52     -0.820456  5 H  s          
    87     -0.207474  9 O  pz                28      0.205992  2 C  pz         
    65     -0.146719  7 H  s                 71      0.146719  8 H  s          

 Vector   27  Occ=0.000000D+00  E= 5.031966D-01  Symmetry=a'
              MO Center=  3.5D-01,  1.2D+00, -4.4D-14, r^2= 3.5D+00
   Bfn.  Coefficient  Atom+Function         Bfn.  Coefficient  Atom+Function  
  ----- ------------  ---------------      ----- ------------  ---------------
    59      1.022858  6 H  s                 58     -0.851256  6 H  s          
    46     -0.771397  4 H  s                 52     -0.771397  5 H  s          
    31      0.739444  2 C  py                 6      0.656120  1 C  s          
    10     -0.647203  1 C  s                 84      0.629027  9 O  s          
    11     -0.502316  1 C  px                40     -0.439574  3 H  s          

 Vector   28  Occ=0.000000D+00  E= 5.455275D-01  Symmetry=a'
              MO Center=  3.9D-02,  1.2D+00, -2.9D-14, r^2= 3.7D+00
   Bfn.  Coefficient  Atom+Function         Bfn.  Coefficient  Atom+Function  
  ----- ------------  ---------------      ----- ------------  ---------------
    11      1.626190  1 C  px                59     -1.327441  6 H  s          
    47      0.790151  4 H  s                 53      0.790151  5 H  s          
     7     -0.686572  1 C  px                10     -0.567924  1 C  s          
    12     -0.554780  1 C  py                65      0.512705  7 H  s          
    71      0.512705  8 H  s                 30      0.480511  2 C  px         

 Vector   29  Occ=0.000000D+00  E= 5.529886D-01  Symmetry=a"
              MO Center= -9.1D-02,  1.2D+00,  3.7D-14, r^2= 3.7D+00
   Bfn.  Coefficient  Atom+Function         Bfn.  Coefficient  Atom+Function  
  ----- ------------  ---------------      ----- ------------  ---------------
    13      1.517365  1 C  pz                47     -1.240773  4 H  s          
    53      1.240773  5 H  s                 32      0.832752  2 C  pz         
     9     -0.821123  1 C  pz                65      0.729072  7 H  s          
    71     -0.729072  8 H  s                 28     -0.522230  2 C  pz         
    46      0.257490  4 H  s                 52     -0.257490  5 H  s          

 Vector   30  Occ=0.000000D+00  E= 5.763159D-01  Symmetry=a'
              MO Center= -4.8D-02,  3.9D-01, -4.8D-15, r^2= 4.6D+00
   Bfn.  Coefficient  Atom+Function         Bfn.  Coefficient  Atom+Function  
  ----- ------------  ---------------      ----- ------------  ---------------
    31      3.183364  2 C  py                10     -2.523396  1 C  s          
    12      2.003323  1 C  py                29      1.974539  2 C  s          
    84      1.822422  9 O  s                 40     -1.803473  3 H  s          
    11      1.584783  1 C  px                86      1.184523  9 O  py         
    41      0.919214  3 H  s                 59     -0.706220  6 H  s          

 Vector   31  Occ=0.000000D+00  E= 5.834814D-01  Symmetry=a'
              MO Center= -6.5D-01,  2.2D-01,  2.1D-14, r^2= 4.1D+00
   Bfn.  Coefficient  Atom+Function         Bfn.  Coefficient  Atom+Function  
  ----- ------------  ---------------      ----- ------------  ---------------
    30      1.571078  2 C  px                40     -1.556650  3 H  s          
    65      1.244328  7 H  s                 71      1.244328  8 H  s          
    84      1.224588  9 O  s                 11     -0.995488  1 C  px         
    29     -0.973762  2 C  s                 10     -0.902165  1 C  s          
    25      0.836349  2 C  s                 59      0.817026  6 H  s          

 Vector   32  Occ=0.000000D+00  E= 6.066475D-01  Symmetry=a"
              MO Center= -4.1D-01,  4.8D-01, -2.3D-14, r^2= 4.1D+00
   Bfn.  Coefficient  Atom+Function         Bfn.  Coefficient  Atom+Function  
  ----- ------------  ---------------      ----- ------------  ---------------
    32      2.410024  2 C  pz                13     -1.805857  1 C  pz         
    65      1.641551  7 H  s                 71     -1.641551  8 H  s          
    47      1.178830  4 H  s                 53     -1.178830  5 H  s          
    28     -0.810115  2 C  pz                 9      0.497652  1 C  pz         
    24     -0.241339  2 C  pz                 5      0.162450  1 C  pz         

 Vector   33  Occ=0.000000D+00  E= 6.318381D-01  Symmetry=a'
              MO Center=  3.4D-01,  6.3D-01,  1.7D-15, r^2= 4.0D+00
   Bfn.  Coefficient  Atom+Function         Bfn.  Coefficient  Atom+Function  
  ----- ------------  ---------------      ----- ------------  ---------------
    29      2.614824  2 C  s                 10      1.772675  1 C  s          
    12      1.516516  1 C  py                40      1.437727  3 H  s          
    84     -1.195081  9 O  s                 30      1.040740  2 C  px         
    41     -0.925494  3 H  s                 86     -0.905738  9 O  py         
    25     -0.835392  2 C  s                 47     -0.795849  4 H  s          

 Vector   34  Occ=0.000000D+00  E= 7.031076D-01  Symmetry=a'
              MO Center= -2.6D-01, -5.4D-01, -1.7D-15, r^2= 3.7D+00
   Bfn.  Coefficient  Atom+Function         Bfn.  Coefficient  Atom+Function  
  ----- ------------  ---------------      ----- ------------  ---------------
    10      2.558472  1 C  s                 40     -2.484100  3 H  s          
    29      2.140301  2 C  s                 84      1.516661  9 O  s          
    86      1.274640  9 O  py                 6     -0.899519  1 C  s          
    31     -0.820989  2 C  py                30     -0.765317  2 C  px         
    85      0.754568  9 O  px                25     -0.721133  2 C  s          

 Vector   35  Occ=0.000000D+00  E= 7.805538D-01  Symmetry=a'
              MO Center=  5.3D-02, -7.6D-02,  4.2D-15, r^2= 4.5D+00
   Bfn.  Coefficient  Atom+Function         Bfn.  Coefficient  Atom+Function  
  ----- ------------  ---------------      ----- ------------  ---------------
    10      6.576009  1 C  s                 29     -5.438678  2 C  s          
     6     -1.264478  1 C  s                 12     -1.229230  1 C  py         
    31     -1.189769  2 C  py                25      0.890743  2 C  s          
    58     -0.820990  6 H  s                 46     -0.776946  4 H  s          
    52     -0.776946  5 H  s                 30     -0.650702  2 C  px         

 Vector   36  Occ=0.000000D+00  E= 7.990252D-01  Symmetry=a"
              MO Center=  1.1D-03, -3.4D-01, -3.3D-17, r^2= 3.4D+00
   Bfn.  Coefficient  Atom+Function         Bfn.  Coefficient  Atom+Function  
  ----- ------------  ---------------      ----- ------------  ---------------
    87      0.869134  9 O  pz                83     -0.563834  9 O  pz         
    32     -0.539680  2 C  pz                37     -0.400865  2 C  dyz        
    16      0.371293  1 C  dxz               18      0.264503  1 C  dyz        
    13      0.187835  1 C  pz                79     -0.185532  9 O  pz         
    46     -0.178767  4 H  s                 52      0.178767  5 H  s          

 Vector   37  Occ=0.000000D+00  E= 9.335614D-01  Symmetry=a'
              MO Center= -6.7D-02,  7.6D-02,  6.3D-15, r^2= 3.5D+00
   Bfn.  Coefficient  Atom+Function         Bfn.  Coefficient  Atom+Function  
  ----- ------------  ---------------      ----- ------------  ---------------
    29     -4.605473  2 C  s                 10      4.435121  1 C  s          
    31     -1.240170  2 C  py                12     -1.188395  1 C  py         
    25      0.884022  2 C  s                 84     -0.743613  9 O  s          
     6     -0.671426  1 C  s                 30     -0.588719  2 C  px         
    85      0.536830  9 O  px                46     -0.470638  4 H  s          

 Vector   38  Occ=0.000000D+00  E= 9.468840D-01  Symmetry=a'
              MO Center=  2.9D-01, -4.5D-01, -9.9D-16, r^2= 3.7D+00
   Bfn.  Coefficient  Atom+Function         Bfn.  Coefficient  Atom+Function  
  ----- ------------  ---------------      ----- ------------  ---------------
    29      6.217804  2 C  s                 10     -5.355197  1 C  s          
    31      1.574295  2 C  py                12      1.441967  1 C  py         
    40     -1.365082  3 H  s                 30      0.952578  2 C  px         
    25     -0.898232  2 C  s                 64     -0.794775  7 H  s          
    70     -0.794775  8 H  s                 11      0.695635  1 C  px         

 Vector   39  Occ=0.000000D+00  E= 9.688837D-01  Symmetry=a"
              MO Center=  2.4D-02, -5.2D-01, -2.9D-16, r^2= 3.4D+00
   Bfn.  Coefficient  Atom+Function         Bfn.  Coefficient  Atom+Function  
  ----- ------------  ---------------      ----- ------------  ---------------
    87      1.039553  9 O  pz                32     -0.658443  2 C  pz         
    37      0.550489  2 C  dyz               13      0.530087  1 C  pz         
    16     -0.465054  1 C  dxz               83     -0.450948  9 O  pz         
    64     -0.309461  7 H  s                 70      0.309461  8 H  s          
    18     -0.301567  1 C  dyz               44     -0.285049  3 H  pz         

 Vector   40  Occ=0.000000D+00  E= 1.025010D+00  Symmetry=a'
              MO Center=  4.4D-01, -1.4D+00,  1.6D-16, r^2= 2.9D+00
   Bfn.  Coefficient  Atom+Function         Bfn.  Coefficient  Atom+Function  
  ----- ------------  ---------------      ----- ------------  ---------------
    31      2.203622  2 C  py                41      2.028999  3 H  s          
    85     -1.546919  9 O  px                10     -1.521609  1 C  s          
    11      0.851163  1 C  px                29     -0.801200  2 C  s          
    86      0.780808  9 O  py                84     -0.647225  9 O  s          
    81      0.589661  9 O  px                59     -0.508490  6 H  s          

 Vector   41  Occ=0.000000D+00  E= 1.279908D+00  Symmetry=a"
              MO Center= -3.6D-01,  9.5D-01, -4.0D-15, r^2= 2.4D+00
   Bfn.  Coefficient  Atom+Function         Bfn.  Coefficient  Atom+Function  
  ----- ------------  ---------------      ----- ------------  ---------------
    13      0.731217  1 C  pz                37     -0.616179  2 C  dyz        
    32     -0.606317  2 C  pz                16     -0.397921  1 C  dxz        
    67      0.332897  7 H  py                73     -0.332897  8 H  py         
    49     -0.312079  4 H  py                55      0.312079  5 H  py         
    48     -0.269053  4 H  px                54      0.269053  5 H  px         

 Vector   42  Occ=0.000000D+00  E= 1.308312D+00  Symmetry=a'
              MO Center=  1.2D-01, -5.8D-01,  3.9D-15, r^2= 3.1D+00
   Bfn.  Coefficient  Atom+Function         Bfn.  Coefficient  Atom+Function  
  ----- ------------  ---------------      ----- ------------  ---------------
    84      3.746549  9 O  s                 29     -1.778145  2 C  s          
    40     -1.533480  3 H  s                 86      1.363772  9 O  py         
    80     -1.049020  9 O  s                 41     -0.841332  3 H  s          
    31      0.613140  2 C  py                64      0.604697  7 H  s          
    70      0.604697  8 H  s                 10      0.522205  1 C  s          

 Vector   43  Occ=0.000000D+00  E= 1.349457D+00  Symmetry=a'
              MO Center=  1.3D-01,  2.1D-01, -6.5D-16, r^2= 2.8D+00
   Bfn.  Coefficient  Atom+Function         Bfn.  Coefficient  Atom+Function  
  ----- ------------  ---------------      ----- ------------  ---------------
    84      1.131212  9 O  s                 34      0.756701  2 C  dxy        
    31      0.745114  2 C  py                58      0.560736  6 H  s          
    80     -0.473284  9 O  s                 14     -0.415588  1 C  dxx        
    36     -0.400188  2 C  dyy               46     -0.373148  4 H  s          
    52     -0.373148  5 H  s                 12      0.353853  1 C  py         

 Vector   44  Occ=0.000000D+00  E= 1.407455D+00  Symmetry=a"
              MO Center=  2.5D-01,  1.5D+00, -2.0D-14, r^2= 2.1D+00
   Bfn.  Coefficient  Atom+Function         Bfn.  Coefficient  Atom+Function  
  ----- ------------  ---------------      ----- ------------  ---------------
    18      0.572980  1 C  dyz               46     -0.460098  4 H  s          
    52      0.460098  5 H  s                 62      0.462080  6 H  pz         
    48     -0.398002  4 H  px                54      0.398002  5 H  px         
    35     -0.379802  2 C  dxz               64      0.344081  7 H  s          
    70     -0.344081  8 H  s                 50     -0.297709  4 H  pz         

 Vector   45  Occ=0.000000D+00  E= 1.416706D+00  Symmetry=a'
              MO Center= -2.9D-01,  1.7D-01,  5.3D-13, r^2= 2.6D+00
   Bfn.  Coefficient  Atom+Function         Bfn.  Coefficient  Atom+Function  
  ----- ------------  ---------------      ----- ------------  ---------------
    40      2.016176  3 H  s                 30     -1.458341  2 C  px         
    84     -1.407139  9 O  s                 64     -0.750401  7 H  s          
    70     -0.750401  8 H  s                 38      0.586951  2 C  dzz        
    11      0.569082  1 C  px                86     -0.551734  9 O  py         
    29      0.508092  2 C  s                 33     -0.502012  2 C  dxx        

 Vector   46  Occ=0.000000D+00  E= 1.420698D+00  Symmetry=a"
              MO Center=  1.0D-01,  1.1D+00, -2.3D-16, r^2= 2.4D+00
   Bfn.  Coefficient  Atom+Function         Bfn.  Coefficient  Atom+Function  
  ----- ------------  ---------------      ----- ------------  ---------------
    18      1.035295  1 C  dyz               35     -0.834455  2 C  dxz        
    46     -0.836500  4 H  s                 52      0.836500  5 H  s          
    64      0.691889  7 H  s                 70     -0.691889  8 H  s          
    13      0.545353  1 C  pz                16     -0.473894  1 C  dxz        
    62     -0.420329  6 H  pz                32      0.393610  2 C  pz         

 Vector   47  Occ=0.000000D+00  E= 1.433630D+00  Symmetry=a"
              MO Center= -2.9D-01, -3.8D-01, -4.5D-13, r^2= 2.0D+00
   Bfn.  Coefficient  Atom+Function         Bfn.  Coefficient  Atom+Function  
  ----- ------------  ---------------      ----- ------------  ---------------
    44      0.724896  3 H  pz                66      0.408130  7 H  px         
    72     -0.408130  8 H  px                35      0.369046  2 C  dxz        
    83     -0.307260  9 O  pz                18     -0.261653  1 C  dyz        
    68     -0.252303  7 H  pz                74     -0.252303  8 H  pz         
    64     -0.220618  7 H  s                 70      0.220618  8 H  s          

 Vector   48  Occ=0.000000D+00  E= 1.486563D+00  Symmetry=a'
              MO Center=  2.6D-01,  1.3D+00, -8.4D-15, r^2= 2.4D+00
   Bfn.  Coefficient  Atom+Function         Bfn.  Coefficient  Atom+Function  
  ----- ------------  ---------------      ----- ------------  ---------------
    11      1.254675  1 C  px                84      1.067460  9 O  s          
    58     -1.012105  6 H  s                 10     -0.867938  1 C  s          
    31      0.688878  2 C  py                14      0.597987  1 C  dxx        
    40     -0.544536  3 H  s                 15     -0.494473  1 C  dxy        
    86      0.408551  9 O  py                29      0.400919  2 C  s          

 Vector   49  Occ=0.000000D+00  E= 1.495511D+00  Symmetry=a'
              MO Center=  8.5D-02,  9.3D-01, -2.2D-13, r^2= 2.7D+00
   Bfn.  Coefficient  Atom+Function         Bfn.  Coefficient  Atom+Function  
  ----- ------------  ---------------      ----- ------------  ---------------
    40     -0.992581  3 H  s                 12      0.917776  1 C  py         
    31     -0.707591  2 C  py                46     -0.710037  4 H  s          
    52     -0.710037  5 H  s                 34     -0.661642  2 C  dxy        
    19      0.623642  1 C  dzz               15     -0.505549  1 C  dxy        
    10      0.456393  1 C  s                 11     -0.360174  1 C  px         

 Vector   50  Occ=0.000000D+00  E= 1.536321D+00  Symmetry=a"
              MO Center= -1.8D-01,  2.5D-01, -2.3D-16, r^2= 2.7D+00
   Bfn.  Coefficient  Atom+Function         Bfn.  Coefficient  Atom+Function  
  ----- ------------  ---------------      ----- ------------  ---------------
    32      2.200927  2 C  pz                13     -1.509775  1 C  pz         
    64      1.244750  7 H  s                 70     -1.244750  8 H  s          
    35     -1.103527  2 C  dxz               46      0.668489  4 H  s          
    52     -0.668489  5 H  s                 16      0.664846  1 C  dxz        
    44     -0.370440  3 H  pz                87     -0.346276  9 O  pz         

 Vector   51  Occ=0.000000D+00  E= 1.620086D+00  Symmetry=a"
              MO Center= -8.4D-02,  8.5D-01,  1.7D-13, r^2= 3.0D+00
   Bfn.  Coefficient  Atom+Function         Bfn.  Coefficient  Atom+Function  
  ----- ------------  ---------------      ----- ------------  ---------------
    13      0.972134  1 C  pz                35      0.493287  2 C  dxz        
    62     -0.445186  6 H  pz                50     -0.344127  4 H  pz         
    56     -0.344127  5 H  pz                49      0.332089  4 H  py         
    55     -0.332089  5 H  py                44     -0.322131  3 H  pz         
    64     -0.308284  7 H  s                 70      0.308284  8 H  s          

 Vector   52  Occ=0.000000D+00  E= 1.702692D+00  Symmetry=a'
              MO Center=  4.3D-02,  6.9D-01,  4.0D-14, r^2= 3.1D+00
   Bfn.  Coefficient  Atom+Function         Bfn.  Coefficient  Atom+Function  
  ----- ------------  ---------------      ----- ------------  ---------------
    10      1.818029  1 C  s                 31     -1.561691  2 C  py         
    29     -1.547968  2 C  s                 12     -1.503261  1 C  py         
    30     -0.824709  2 C  px                40     -0.662212  3 H  s          
    61      0.574855  6 H  py                67      0.436552  7 H  py         
    73      0.436552  8 H  py                34     -0.374084  2 C  dxy        

 Vector   53  Occ=0.000000D+00  E= 1.781971D+00  Symmetry=a'
              MO Center= -5.7D-02,  1.0D+00, -5.7D-15, r^2= 2.8D+00
   Bfn.  Coefficient  Atom+Function         Bfn.  Coefficient  Atom+Function  
  ----- ------------  ---------------      ----- ------------  ---------------
    11      1.155779  1 C  px                31      1.055759  2 C  py         
    59     -0.671282  6 H  s                 41      0.615259  3 H  s          
    10     -0.590043  1 C  s                 29      0.578825  2 C  s          
    40      0.531345  3 H  s                 48     -0.533491  4 H  px         
    54     -0.533491  5 H  px                36      0.464049  2 C  dyy        

 Vector   54  Occ=0.000000D+00  E= 1.816673D+00  Symmetry=a"
              MO Center= -1.9D-01,  6.3D-01, -5.1D-16, r^2= 3.2D+00
   Bfn.  Coefficient  Atom+Function         Bfn.  Coefficient  Atom+Function  
  ----- ------------  ---------------      ----- ------------  ---------------
    35      1.095112  2 C  dxz               18      0.846201  1 C  dyz        
    13     -0.818780  1 C  pz                64     -0.747902  7 H  s          
    70      0.747902  8 H  s                 65      0.735503  7 H  s          
    71     -0.735503  8 H  s                 32      0.715295  2 C  pz         
    47      0.668165  4 H  s                 53     -0.668165  5 H  s          

 Vector   55  Occ=0.000000D+00  E= 1.874271D+00  Symmetry=a'
              MO Center= -2.2D-01, -2.3D-01, -2.4D-14, r^2= 2.5D+00
   Bfn.  Coefficient  Atom+Function         Bfn.  Coefficient  Atom+Function  
  ----- ------------  ---------------      ----- ------------  ---------------
    40      3.129526  3 H  s                 84     -2.595501  9 O  s          
    31     -1.573079  2 C  py                86     -1.355761  9 O  py         
    43     -1.060459  3 H  py                10      0.794130  1 C  s          
    41     -0.668323  3 H  s                 67      0.517039  7 H  py         
    73      0.517039  8 H  py                11     -0.461177  1 C  px         

 Vector   56  Occ=0.000000D+00  E= 1.966866D+00  Symmetry=a'
              MO Center= -1.5D-02,  9.0D-01, -1.1D-15, r^2= 2.8D+00
   Bfn.  Coefficient  Atom+Function         Bfn.  Coefficient  Atom+Function  
  ----- ------------  ---------------      ----- ------------  ---------------
    15      0.932078  1 C  dxy               40      0.779303  3 H  s          
    64     -0.646661  7 H  s                 70     -0.646661  8 H  s          
    38      0.617025  2 C  dzz               46      0.559599  4 H  s          
    52      0.559599  5 H  s                 58      0.462518  6 H  s          
    61     -0.408727  6 H  py                42     -0.399974  3 H  px         

 Vector   57  Occ=0.000000D+00  E= 1.983139D+00  Symmetry=a"
              MO Center= -7.3D-02,  7.9D-01,  5.1D-15, r^2= 2.5D+00
   Bfn.  Coefficient  Atom+Function         Bfn.  Coefficient  Atom+Function  
  ----- ------------  ---------------      ----- ------------  ---------------
    16      1.129257  1 C  dxz               37     -1.061273  2 C  dyz        
    46      0.513047  4 H  s                 52     -0.513047  5 H  s          
    62     -0.503646  6 H  pz                67     -0.436974  7 H  py         
    73      0.436974  8 H  py                35      0.419006  2 C  dxz        
    13      0.412241  1 C  pz                47     -0.409065  4 H  s          

 Vector   58  Occ=0.000000D+00  E= 2.004538D+00  Symmetry=a'
              MO Center= -3.1D-01,  4.5D-01, -4.4D-14, r^2= 3.0D+00
   Bfn.  Coefficient  Atom+Function         Bfn.  Coefficient  Atom+Function  
  ----- ------------  ---------------      ----- ------------  ---------------
    40      1.973688  3 H  s                 31      0.763556  2 C  py         
    29     -0.633396  2 C  s                 80     -0.615824  9 O  s          
    38      0.580121  2 C  dzz               46     -0.536700  4 H  s          
    52     -0.536700  5 H  s                 42     -0.525023  3 H  px         
    64     -0.492574  7 H  s                 70     -0.492574  8 H  s          

 Vector   59  Occ=0.000000D+00  E= 2.074369D+00  Symmetry=a'
              MO Center=  8.3D-02,  3.6D-01,  3.1D-14, r^2= 2.7D+00
   Bfn.  Coefficient  Atom+Function         Bfn.  Coefficient  Atom+Function  
  ----- ------------  ---------------      ----- ------------  ---------------
    34      1.206328  2 C  dxy               59      0.609877  6 H  s          
    58     -0.592277  6 H  s                 57      0.553470  6 H  s          
    40      0.540270  3 H  s                 11     -0.498620  1 C  px         
    42     -0.470518  3 H  px                15     -0.412837  1 C  dxy        
    64     -0.354453  7 H  s                 70     -0.354453  8 H  s          

 Vector   60  Occ=0.000000D+00  E= 2.141029D+00  Symmetry=a'
              MO Center=  2.1D-01,  4.0D-01, -1.4D-14, r^2= 3.0D+00
   Bfn.  Coefficient  Atom+Function         Bfn.  Coefficient  Atom+Function  
  ----- ------------  ---------------      ----- ------------  ---------------
    40      3.969407  3 H  s                 84     -2.438274  9 O  s          
    43     -1.046334  3 H  py                86     -1.046949  9 O  py         
    15     -0.942229  1 C  dxy               29     -0.943720  2 C  s          
    10      0.807093  1 C  s                 42     -0.702080  3 H  px         
    30     -0.651933  2 C  px                80     -0.610821  9 O  s          

 Vector   61  Occ=0.000000D+00  E= 2.245591D+00  Symmetry=a"
              MO Center= -4.6D-01,  7.3D-01, -5.7D-15, r^2= 3.0D+00
   Bfn.  Coefficient  Atom+Function         Bfn.  Coefficient  Atom+Function  
  ----- ------------  ---------------      ----- ------------  ---------------
    64      1.623451  7 H  s                 70     -1.623451  8 H  s          
    28      1.304822  2 C  pz                46     -1.118926  4 H  s          
    52      1.118926  5 H  s                  9      0.675782  1 C  pz         
    63     -0.626122  7 H  s                 69      0.626122  8 H  s          
    45      0.548033  4 H  s                 51     -0.548033  5 H  s          

 Vector   62  Occ=0.000000D+00  E= 2.293024D+00  Symmetry=a'
              MO Center=  1.8D-01,  1.4D+00,  4.6D-14, r^2= 2.3D+00
   Bfn.  Coefficient  Atom+Function         Bfn.  Coefficient  Atom+Function  
  ----- ------------  ---------------      ----- ------------  ---------------
    40      1.037031  3 H  s                 10      0.956846  1 C  s          
    15      0.919319  1 C  dxy               17      0.811226  1 C  dyy        
    46     -0.800221  4 H  s                 52     -0.800221  5 H  s          
    31     -0.777198  2 C  py                29     -0.699842  2 C  s          
    84     -0.657957  9 O  s                 60     -0.653256  6 H  px         

 Vector   63  Occ=0.000000D+00  E= 2.315100D+00  Symmetry=a"
              MO Center= -9.8D-02,  7.8D-01,  8.8D-16, r^2= 2.5D+00
   Bfn.  Coefficient  Atom+Function         Bfn.  Coefficient  Atom+Function  
  ----- ------------  ---------------      ----- ------------  ---------------
    16      1.433955  1 C  dxz               37      1.348401  2 C  dyz        
    46      0.696291  4 H  s                 52     -0.696291  5 H  s          
     9     -0.506683  1 C  pz                49     -0.459250  4 H  py         
    55      0.459250  5 H  py                50     -0.417577  4 H  pz         
    56     -0.417577  5 H  pz                28     -0.353844  2 C  pz         

 Vector   64  Occ=0.000000D+00  E= 2.374460D+00  Symmetry=a'
              MO Center= -2.1D-01,  5.7D-01,  7.7D-15, r^2= 2.7D+00
   Bfn.  Coefficient  Atom+Function         Bfn.  Coefficient  Atom+Function  
  ----- ------------  ---------------      ----- ------------  ---------------
    40      1.385982  3 H  s                 29     -1.178789  2 C  s          
    64      0.917252  7 H  s                 70      0.917252  8 H  s          
    36     -0.698632  2 C  dyy               63     -0.569668  7 H  s          
    69     -0.569668  8 H  s                 30     -0.553993  2 C  px         
    14     -0.520731  1 C  dxx               46      0.488402  4 H  s          

 Vector   65  Occ=0.000000D+00  E= 2.387051D+00  Symmetry=a'
              MO Center=  2.8D-01,  1.0D+00,  8.6D-15, r^2= 2.6D+00
   Bfn.  Coefficient  Atom+Function         Bfn.  Coefficient  Atom+Function  
  ----- ------------  ---------------      ----- ------------  ---------------
    58      1.593938  6 H  s                 40      1.147564  3 H  s          
    34      0.910068  2 C  dxy               57     -0.769150  6 H  s          
    60     -0.638000  6 H  px                19      0.605322  1 C  dzz        
    17     -0.579283  1 C  dyy               84     -0.565687  9 O  s          
     7     -0.553858  1 C  px                33      0.531099  2 C  dxx        

 Vector   66  Occ=0.000000D+00  E= 2.461165D+00  Symmetry=a"
              MO Center= -1.9D-01,  9.2D-01, -6.8D-12, r^2= 2.2D+00
   Bfn.  Coefficient  Atom+Function         Bfn.  Coefficient  Atom+Function  
  ----- ------------  ---------------      ----- ------------  ---------------
    18      1.243568  1 C  dyz               46     -0.861163  4 H  s          
    52      0.861163  5 H  s                 35     -0.806500  2 C  dxz        
    13      0.756234  1 C  pz                50      0.644704  4 H  pz         
    56      0.644704  5 H  pz                24      0.600537  2 C  pz         
     5      0.596381  1 C  pz                16     -0.530672  1 C  dxz        

 Vector   67  Occ=0.000000D+00  E= 2.476363D+00  Symmetry=a'
              MO Center=  1.8D-01,  8.5D-01,  6.8D-12, r^2= 2.9D+00
   Bfn.  Coefficient  Atom+Function         Bfn.  Coefficient  Atom+Function  
  ----- ------------  ---------------      ----- ------------  ---------------
    40      1.675460  3 H  s                 58     -1.359971  6 H  s          
    29     -0.972698  2 C  s                 46      0.953979  4 H  s          
    52      0.953979  5 H  s                 11      0.938673  1 C  px         
    34      0.786820  2 C  dxy               15      0.769595  1 C  dxy        
    30     -0.761675  2 C  px                60      0.734456  6 H  px         

 Vector   68  Occ=0.000000D+00  E= 2.535385D+00  Symmetry=a"
              MO Center= -3.6D-01,  8.1D-01,  1.5D-15, r^2= 3.2D+00
   Bfn.  Coefficient  Atom+Function         Bfn.  Coefficient  Atom+Function  
  ----- ------------  ---------------      ----- ------------  ---------------
    64      1.837544  7 H  s                 70     -1.837544  8 H  s          
    46      1.664756  4 H  s                 52     -1.664756  5 H  s          
    32      1.319182  2 C  pz                28      1.222322  2 C  pz         
    35     -1.218940  2 C  dxz               13     -1.077475  1 C  pz         
     9     -1.039230  1 C  pz                18     -0.820002  1 C  dyz        

 Vector   69  Occ=0.000000D+00  E= 2.572794D+00  Symmetry=a'
              MO Center= -4.4D-01,  4.5D-01, -9.1D-14, r^2= 2.2D+00
   Bfn.  Coefficient  Atom+Function         Bfn.  Coefficient  Atom+Function  
  ----- ------------  ---------------      ----- ------------  ---------------
    10      1.139699  1 C  s                 64     -1.119460  7 H  s          
    70     -1.119460  8 H  s                 46     -1.018027  4 H  s          
    52     -1.018027  5 H  s                 38      0.943401  2 C  dzz        
    40     -0.787520  3 H  s                 68     -0.733170  7 H  pz         
    74      0.733170  8 H  pz                25      0.719777  2 C  s          

 Vector   70  Occ=0.000000D+00  E= 2.587059D+00  Symmetry=a'
              MO Center=  7.5D-02,  5.6D-01,  1.4D-14, r^2= 3.0D+00
   Bfn.  Coefficient  Atom+Function         Bfn.  Coefficient  Atom+Function  
  ----- ------------  ---------------      ----- ------------  ---------------
    58      1.387370  6 H  s                 64      1.097889  7 H  s          
    70      1.097889  8 H  s                 57     -0.805289  6 H  s          
    36     -0.581485  2 C  dyy                7     -0.576875  1 C  px         
    34      0.556423  2 C  dxy               33     -0.506788  2 C  dxx        
    19     -0.484142  1 C  dzz               63     -0.445422  7 H  s          

 Vector   71  Occ=0.000000D+00  E= 2.651814D+00  Symmetry=a"
              MO Center= -1.6D-01,  7.2D-01,  2.0D-15, r^2= 2.0D+00
   Bfn.  Coefficient  Atom+Function         Bfn.  Coefficient  Atom+Function  
  ----- ------------  ---------------      ----- ------------  ---------------
    18      1.204353  1 C  dyz               35      1.162706  2 C  dxz        
    37      0.780415  2 C  dyz                9     -0.555959  1 C  pz         
    24     -0.525917  2 C  pz                45     -0.515330  4 H  s          
    51      0.515330  5 H  s                 46      0.494836  4 H  s          
    52     -0.494836  5 H  s                  5      0.489183  1 C  pz         

 Vector   72  Occ=0.000000D+00  E= 2.777839D+00  Symmetry=a'
              MO Center=  9.1D-02, -4.2D-01, -1.5D-15, r^2= 2.4D+00
   Bfn.  Coefficient  Atom+Function         Bfn.  Coefficient  Atom+Function  
  ----- ------------  ---------------      ----- ------------  ---------------
    10      2.217633  1 C  s                 40      1.932692  3 H  s          
    29     -1.571098  2 C  s                 58     -1.042156  6 H  s          
    84     -0.944945  9 O  s                 31     -0.935857  2 C  py         
    46     -0.873285  4 H  s                 52     -0.873285  5 H  s          
    43     -0.792693  3 H  py                80     -0.775238  9 O  s          

 Vector   73  Occ=0.000000D+00  E= 2.922296D+00  Symmetry=a"
              MO Center=  1.4D-01, -1.4D+00,  4.8D-11, r^2= 1.2D+00
   Bfn.  Coefficient  Atom+Function         Bfn.  Coefficient  Atom+Function  
  ----- ------------  ---------------      ----- ------------  ---------------
    90      1.454639  9 O  dxz               92     -0.788334  9 O  dyz        
    18     -0.632430  1 C  dyz               32      0.550851  2 C  pz         
    37     -0.546655  2 C  dyz               13     -0.453595  1 C  pz         
    46      0.368831  4 H  s                 52     -0.368831  5 H  s          
    28     -0.269663  2 C  pz                 9     -0.221853  1 C  pz         

 Vector   74  Occ=0.000000D+00  E= 2.922824D+00  Symmetry=a'
              MO Center= -3.0D-02, -3.3D-01, -4.8D-11, r^2= 2.8D+00
   Bfn.  Coefficient  Atom+Function         Bfn.  Coefficient  Atom+Function  
  ----- ------------  ---------------      ----- ------------  ---------------
    10      2.670652  1 C  s                 29     -2.592918  2 C  s          
    64      1.607947  7 H  s                 70      1.607947  8 H  s          
    43      1.160718  3 H  py                46     -1.114364  4 H  s          
    52     -1.114364  5 H  s                 80      0.996651  9 O  s          
    26      0.819175  2 C  px                68      0.772952  7 H  pz         

 Vector   75  Occ=0.000000D+00  E= 2.949170D+00  Symmetry=a'
              MO Center= -7.0D-02,  1.3D-01,  1.3D-13, r^2= 3.1D+00
   Bfn.  Coefficient  Atom+Function         Bfn.  Coefficient  Atom+Function  
  ----- ------------  ---------------      ----- ------------  ---------------
    29      4.940970  2 C  s                 10     -4.007805  1 C  s          
    40     -1.649001  3 H  s                 64     -1.634545  7 H  s          
    70     -1.634545  8 H  s                 46      1.490060  4 H  s          
    52      1.490060  5 H  s                 58      1.351575  6 H  s          
    43      0.859890  3 H  py                80      0.763124  9 O  s          

 Vector   76  Occ=0.000000D+00  E= 3.008644D+00  Symmetry=a'
              MO Center= -2.5D-02,  7.7D-01,  1.8D-15, r^2= 1.5D+00
   Bfn.  Coefficient  Atom+Function         Bfn.  Coefficient  Atom+Function  
  ----- ------------  ---------------      ----- ------------  ---------------
    10      2.381260  1 C  s                 29      1.308312  2 C  s          
     6      1.260656  1 C  s                 25      1.234080  2 C  s          
    46     -0.919632  4 H  s                 52     -0.919632  5 H  s          
    58     -0.914684  6 H  s                  8      0.785613  1 C  py         
    36     -0.736933  2 C  dyy               64     -0.687503  7 H  s          

 Vector   77  Occ=0.000000D+00  E= 3.304809D+00  Symmetry=a'
              MO Center=  4.8D-02,  1.2D+00,  3.5D-16, r^2= 2.1D+00
   Bfn.  Coefficient  Atom+Function         Bfn.  Coefficient  Atom+Function  
  ----- ------------  ---------------      ----- ------------  ---------------
    10      1.830774  1 C  s                 19     -1.677671  1 C  dzz        
    17     -1.273995  1 C  dyy                8     -1.230414  1 C  py         
    14     -1.158764  1 C  dxx               26      1.006715  2 C  px         
    38     -0.728728  2 C  dzz                6      0.682606  1 C  s          
    50     -0.641705  4 H  pz                56      0.641705  5 H  pz         

 Vector   78  Occ=0.000000D+00  E= 3.392632D+00  Symmetry=a'
              MO Center= -2.4D-01,  1.1D-01, -2.0D-16, r^2= 2.0D+00
   Bfn.  Coefficient  Atom+Function         Bfn.  Coefficient  Atom+Function  
  ----- ------------  ---------------      ----- ------------  ---------------
    38     -1.926556  2 C  dzz               29      1.810838  2 C  s          
    10     -1.415923  1 C  s                 33     -1.351581  2 C  dxx        
    36     -1.169508  2 C  dyy               14      1.157269  1 C  dxx        
    26      0.935496  2 C  px                19      0.822198  1 C  dzz        
    25      0.814685  2 C  s                 64      0.755240  7 H  s          

 Vector   79  Occ=0.000000D+00  E= 3.451961D+00  Symmetry=a'
              MO Center=  4.6D-02, -4.6D-01,  3.1D-16, r^2= 2.2D+00
   Bfn.  Coefficient  Atom+Function         Bfn.  Coefficient  Atom+Function  
  ----- ------------  ---------------      ----- ------------  ---------------
    26      1.223652  2 C  px                 7      1.125966  1 C  px         
    89      0.866103  9 O  dxy               14      0.802886  1 C  dxx        
    36      0.735790  2 C  dyy               27     -0.723846  2 C  py         
    58     -0.712362  6 H  s                 60      0.652151  6 H  px         
    25     -0.564096  2 C  s                 23      0.549966  2 C  py         

 Vector   80  Occ=0.000000D+00  E= 3.529904D+00  Symmetry=a"
              MO Center=  1.2D-01, -1.1D+00, -1.5D-16, r^2= 1.9D+00
   Bfn.  Coefficient  Atom+Function         Bfn.  Coefficient  Atom+Function  
  ----- ------------  ---------------      ----- ------------  ---------------
    92      1.662496  9 O  dyz                9     -1.031214  1 C  pz         
    35      0.960737  2 C  dxz               44     -0.770964  3 H  pz         
    28     -0.754666  2 C  pz                18     -0.723695  1 C  dyz        
    90      0.725617  9 O  dxz               46      0.432180  4 H  s          
    52     -0.432180  5 H  s                  5      0.385037  1 C  pz         

 Vector   81  Occ=0.000000D+00  E= 3.611295D+00  Symmetry=a"
              MO Center= -7.2D-02,  5.7D-01, -9.3D-16, r^2= 2.7D+00
   Bfn.  Coefficient  Atom+Function         Bfn.  Coefficient  Atom+Function  
  ----- ------------  ---------------      ----- ------------  ---------------
     9      2.251469  1 C  pz                28      1.894966  2 C  pz         
    18      1.798909  1 C  dyz               35     -1.285982  2 C  dxz        
    46     -0.931933  4 H  s                 52      0.931933  5 H  s          
    64      0.866205  7 H  s                 70     -0.866205  8 H  s          
     5     -0.799983  1 C  pz                50      0.693365  4 H  pz         

 Vector   82  Occ=0.000000D+00  E= 3.682794D+00  Symmetry=a'
              MO Center=  2.8D-01,  4.5D-01,  2.2D-17, r^2= 2.9D+00
   Bfn.  Coefficient  Atom+Function         Bfn.  Coefficient  Atom+Function  
  ----- ------------  ---------------      ----- ------------  ---------------
     7      2.255756  1 C  px                40     -1.066768  3 H  s          
    58     -1.044944  6 H  s                 60      0.992163  6 H  px         
    19     -0.947815  1 C  dzz                3     -0.922020  1 C  px         
     8     -0.830925  1 C  py                42      0.766345  3 H  px         
    14      0.737032  1 C  dxx               46      0.690953  4 H  s          

 Vector   83  Occ=0.000000D+00  E= 3.954691D+00  Symmetry=a'
              MO Center=  1.3D-01, -4.6D-01, -2.7D-15, r^2= 2.2D+00
   Bfn.  Coefficient  Atom+Function         Bfn.  Coefficient  Atom+Function  
  ----- ------------  ---------------      ----- ------------  ---------------
    26      1.785457  2 C  px                40     -1.671149  3 H  s          
     8      1.204814  1 C  py                42      1.067348  3 H  px         
    84      0.998030  9 O  s                  7     -0.992364  1 C  px         
    91      0.740479  9 O  dyy               36      0.727779  2 C  dyy        
    22     -0.698375  2 C  px                88     -0.691695  9 O  dxx        

 Vector   84  Occ=0.000000D+00  E= 4.061338D+00  Symmetry=a"
              MO Center= -4.3D-01,  6.5D-01,  5.5D-15, r^2= 1.8D+00
   Bfn.  Coefficient  Atom+Function         Bfn.  Coefficient  Atom+Function  
  ----- ------------  ---------------      ----- ------------  ---------------
    28      2.999613  2 C  pz                 9     -2.265011  1 C  pz         
    35     -2.193390  2 C  dxz               64      1.250667  7 H  s          
    70     -1.250667  8 H  s                 18     -1.137965  1 C  dyz        
    16      1.057701  1 C  dxz               46      0.950764  4 H  s          
    52     -0.950764  5 H  s                 24     -0.934808  2 C  pz         

 Vector   85  Occ=0.000000D+00  E= 4.290793D+00  Symmetry=a'
              MO Center= -1.0D-02,  8.8D-02,  4.9D-17, r^2= 2.0D+00
   Bfn.  Coefficient  Atom+Function         Bfn.  Coefficient  Atom+Function  
  ----- ------------  ---------------      ----- ------------  ---------------
    27      2.521163  2 C  py                 8      2.140947  1 C  py         
    34      1.499232  2 C  dxy               15     -1.277700  1 C  dxy        
    17     -1.211177  1 C  dyy                7      1.157462  1 C  px         
    36      1.130537  2 C  dyy               23     -0.894373  2 C  py         
    89      0.752614  9 O  dxy                4     -0.722635  1 C  py         

 Vector   86  Occ=0.000000D+00  E= 4.362773D+00  Symmetry=a'
              MO Center=  1.7D-01, -9.4D-01, -1.8D-17, r^2= 1.7D+00
   Bfn.  Coefficient  Atom+Function         Bfn.  Coefficient  Atom+Function  
  ----- ------------  ---------------      ----- ------------  ---------------
     8      1.409507  1 C  py                84     -1.084191  9 O  s          
    27      1.062197  2 C  py                39      1.050366  3 H  s          
    43     -0.962817  3 H  py                26      0.930483  2 C  px         
    89     -0.919333  9 O  dxy               80     -0.849547  9 O  s          
    40      0.770062  3 H  s                 17     -0.721650  1 C  dyy        

 Vector   87  Occ=0.000000D+00  E= 4.980496D+00  Symmetry=a"
              MO Center=  2.1D-01, -1.6D+00,  3.8D-17, r^2= 4.8D-01
   Bfn.  Coefficient  Atom+Function         Bfn.  Coefficient  Atom+Function  
  ----- ------------  ---------------      ----- ------------  ---------------
    83      1.516739  9 O  pz                79     -1.267104  9 O  pz         
    87     -0.580205  9 O  pz                32      0.471724  2 C  pz         
    44     -0.307339  3 H  pz                13     -0.266953  1 C  pz         
    64      0.259332  7 H  s                 70     -0.259332  8 H  s          
    92      0.246055  9 O  dyz               90      0.173382  9 O  dxz        

 Vector   88  Occ=0.000000D+00  E= 5.142753D+00  Symmetry=a'
              MO Center=  2.4D-01, -1.6D+00,  2.4D-18, r^2= 5.4D-01
   Bfn.  Coefficient  Atom+Function         Bfn.  Coefficient  Atom+Function  
  ----- ------------  ---------------      ----- ------------  ---------------
    81      1.448440  9 O  px                77     -1.082910  9 O  px         
    82     -0.825249  9 O  py                85     -0.680261  9 O  px         
    78      0.647927  9 O  py                40      0.622160  3 H  s          
    29     -0.569337  2 C  s                 42     -0.537543  3 H  px         
    31      0.530803  2 C  py                41      0.517132  3 H  s          

 Vector   89  Occ=0.000000D+00  E= 5.707709D+00  Symmetry=a'
              MO Center=  1.1D-01, -1.7D+00, -2.5D-17, r^2= 6.0D-01
   Bfn.  Coefficient  Atom+Function         Bfn.  Coefficient  Atom+Function  
  ----- ------------  ---------------      ----- ------------  ---------------
    80      2.242597  9 O  s                 84      2.190183  9 O  s          
    82      1.421054  9 O  py                93     -1.293530  9 O  dzz        
    39     -1.085010  3 H  s                 88     -1.029731  9 O  dxx        
    40     -0.911527  3 H  s                 43      0.874518  3 H  py         
    81      0.839785  9 O  px                89      0.710431  9 O  dxy        

 Vector   90  Occ=0.000000D+00  E= 7.275987D+00  Symmetry=a'
              MO Center=  3.4D-01, -1.3D+00, -1.8D-17, r^2= 4.6D-01
   Bfn.  Coefficient  Atom+Function         Bfn.  Coefficient  Atom+Function  
  ----- ------------  ---------------      ----- ------------  ---------------
    82      2.481459  9 O  py                40     -2.241355  3 H  s          
    91      2.230236  9 O  dyy               39     -2.028804  3 H  s          
    43      1.857100  3 H  py                88      1.214492  9 O  dxx        
    89      1.142535  9 O  dxy               81      1.073732  9 O  px         
    93      0.971070  9 O  dzz               42      0.843083  3 H  px         

 Vector   91  Occ=0.000000D+00  E= 2.654280D+01  Symmetry=a'
              MO Center= -1.6D-01,  5.8D-01, -3.7D-17, r^2= 6.9D-01
   Bfn.  Coefficient  Atom+Function         Bfn.  Coefficient  Atom+Function  
  ----- ------------  ---------------      ----- ------------  ---------------
    21      2.005821  2 C  s                 20     -1.645902  2 C  s          
     2      1.614266  1 C  s                  1     -1.326422  1 C  s          
    25     -0.864933  2 C  s                  6     -0.699779  1 C  s          
    29     -0.641825  2 C  s                 38      0.530061  2 C  dzz        
    33      0.519751  2 C  dxx               36      0.512368  2 C  dyy        

 Vector   92  Occ=0.000000D+00  E= 2.662294D+01  Symmetry=a'
              MO Center= -2.7D-02,  8.8D-01, -7.9D-19, r^2= 6.9D-01
   Bfn.  Coefficient  Atom+Function         Bfn.  Coefficient  Atom+Function  
  ----- ------------  ---------------      ----- ------------  ---------------
     2      2.014234  1 C  s                  1     -1.647839  1 C  s          
    21     -1.626853  2 C  s                 20      1.329161  2 C  s          
    10     -1.061050  1 C  s                 29      0.977259  2 C  s          
     6     -0.830523  1 C  s                 25      0.661400  2 C  s          
    17      0.632547  1 C  dyy               14      0.570173  1 C  dxx        

 Vector   93  Occ=0.000000D+00  E= 5.560550D+01  Symmetry=a'
              MO Center=  1.7D-01, -1.6D+00, -4.7D-20, r^2= 6.7D-02
   Bfn.  Coefficient  Atom+Function         Bfn.  Coefficient  Atom+Function  
  ----- ------------  ---------------      ----- ------------  ---------------
    76      2.723544  9 O  s                 75     -2.324205  9 O  s          
    80     -0.986372  9 O  s                 91      0.676545  9 O  dyy        
    88      0.586613  9 O  dxx               93      0.576279  9 O  dzz        
    40     -0.295577  3 H  s                 84     -0.262479  9 O  s          
    82      0.246446  9 O  py                43      0.206958  3 H  py         


 center of mass
 --------------
 x =   0.01137612 y =  -0.17330874 z =   0.00000000

 moments of inertia (a.u.)
 ------------------
         286.338972913340          -0.000000000000           0.000000000000
          -0.000000000000          36.523830125276           0.000000000000
           0.000000000000           0.000000000000         299.541231910409

     Multipole analysis of the density
     ---------------------------------

     L   x y z        total         alpha         beta         nuclear
     -   - - -        -----         -----         ----         -------
     0   0 0 0     -0.000000    -13.000000    -13.000000     26.000000

     1   1 0 0     -0.066783     -0.033392     -0.033392     -0.000000
     1   0 1 0      1.564100      0.782050      0.782050      0.000000
     1   0 0 1     -0.000000     -0.000000     -0.000000      0.000000

     2   2 0 0    -14.170171    -16.869704    -16.869704     19.569237
     2   1 1 0     -0.123709     -1.021888     -1.021888      1.920067
     2   1 0 1     -0.000000     -0.000000     -0.000000      0.000000
     2   0 2 0    -18.258694    -87.587101    -87.587101    156.915508
     2   0 1 1      0.000000      0.000000      0.000000      0.000000
     2   0 0 2    -14.157375    -12.863811    -12.863811     11.570248


            General Information
            -------------------
          SCF calculation type: DFT
          Wavefunction type:  closed shell.
          No. of atoms     :     9
          No. of electrons :    26
           Alpha electrons :    13
            Beta electrons :    13
          Charge           :     0
          Spin multiplicity:     1
          Use of symmetry is: on ; symmetry adaption is: on 
          Maximum number of iterations:  50
          AO basis - number of functions:    93
                     number of shells:    48
          Convergence on energy requested:  1.00D-07
          Convergence on density requested:  1.00D-06
          Convergence on gradient requested:  5.00D-04

              XC Information
              --------------
                         PBE0 Method XC Functional
                     Hartree-Fock (Exact) Exchange  0.250          
          PerdewBurkeErnzerhof Exchange Functional  0.750          
            Perdew 1991 LDA Correlation Functional  1.000 local    
           PerdewBurkeErnz. Correlation Functional  1.000 non-local

             Grid Information
             ----------------
          Grid used for XC integration:  medium    
          Radial quadrature: Mura-Knowles        
          Angular quadrature: Lebedev. 
          Tag              B.-S. Rad. Rad. Pts. Rad. Cut. Ang. Pts.
          ---              ---------- --------- --------- ---------
          C                   0.70       49           8.0       434
          H                   0.35       45          10.0       434
          O                   0.60       49          10.0       434
          Grid pruning is: on 
          Number of quadrature shells:   327
          Spatial weights used:  Erf1

          Convergence Information
          -----------------------
          Convergence aids based upon iterative change in 
          total energy or number of iterations. 
          Levelshifting, if invoked, occurs when the 
          HOMO/LUMO gap drops below (HL_TOL):  1.00D-02
          DIIS, if invoked, will attempt to extrapolate 
          using up to (NFOCK): 10 stored Fock matrices.

                    Damping( 0%)  Levelshifting(0.5)       DIIS
                  --------------- ------------------- ---------------
          dE  on:    start            ASAP                start   
          dE off:    2 iters         50 iters            50 iters 


      Screening Tolerance Information
      -------------------------------
          Density screening/tol_rho:  1.00D-10
          AO Gaussian exp screening on grid/accAOfunc:  16
          CD Gaussian exp screening on grid/accCDfunc:  20
          XC Gaussian exp screening on grid/accXCfunc:  20
          Schwarz screening/accCoul:  1.00D-08



                            NWChem DFT Gradient Module
                            --------------------------



  charge          =   0.00
  wavefunction    = closed shell

  Using symmetry


                         DFT ENERGY GRADIENTS

    atom               coordinates                        gradient
                 x          y          z           x          y          z
   1 C       0.399833   2.676977   0.000000   -0.074109   0.005227   0.000000
   2 C      -0.749117   0.085682   0.000000    0.107697  -0.007157   0.000000
   3 H       0.864339  -1.869996   0.000000   -0.426031  -0.629551   0.000000
   4 H      -0.157545   3.750972   1.700753   -0.004475   0.007652   0.005606
   5 H      -0.157545   3.750972  -1.700753   -0.004475   0.007652  -0.005606
   6 H       2.606503   2.525425   0.000000    0.034338  -0.011061   0.000000
   7 H      -1.842672  -0.049594  -1.700753    0.012695   0.007044   0.001679
   8 H      -1.842672  -0.049594   1.700753    0.012695   0.007044  -0.001679
   9 O       0.328162  -3.079267   0.000000    0.341665   0.613150   0.000000

                 ----------------------------------------
                 |  Time  |  1-e(secs)   |  2-e(secs)   |
                 ----------------------------------------
                 |  CPU   |       0.00   |       0.88   |
                 ----------------------------------------
                 |  WALL  |       0.00   |       0.88   |
                 ----------------------------------------

 Task  times  cpu:        5.8s     wall:        5.8s


                                NWChem Input Module
                                -------------------


 Summary of allocated global arrays
-----------------------------------
  No active global arrays


MA_summarize_allocated_blocks: starting scan ...
MA_summarize_allocated_blocks: scan completed: 0 heap blocks, 0 stack blocks
MA usage statistics:

	allocation statistics:
					      heap	     stack
					      ----	     -----
	current number of blocks	         0	         0
	maximum number of blocks	        25	        62
	current total bytes		         0	         0
	maximum total bytes		 273577928	  32959496
	maximum total K-bytes		    273578	     32960
	maximum total M-bytes		       274	        33


                                     CITATION
                                     --------
                Please cite the following reference when publishing
                           results obtained with NWChem:

          E. Apra, E. J. Bylaska, W. A. de Jong, N. Govind, K. Kowalski,
       T. P. Straatsma, M. Valiev, H. J. J. van Dam, Y. Alexeev, J. Anchell,
       V. Anisimov, F. W. Aquino, R. Atta-Fynn, J. Autschbach, N. P. Bauman,
     J. C. Becca, D. E. Bernholdt, K. Bhaskaran-Nair, S. Bogatko, P. Borowski,
         J. Boschen, J. Brabec, A. Bruner, E. Cauet, Y. Chen, G. N. Chuev,
      C. J. Cramer, J. Daily, M. J. O. Deegan, T. H. Dunning Jr., M. Dupuis,
   K. G. Dyall, G. I. Fann, S. A. Fischer, A. Fonari, H. Fruchtl, L. Gagliardi,
      J. Garza, N. Gawande, S. Ghosh, K. Glaesemann, A. W. Gotz, J. Hammond,
       V. Helms, E. D. Hermes, K. Hirao, S. Hirata, M. Jacquelin, L. Jensen,
   B. G. Johnson, H. Jonsson, R. A. Kendall, M. Klemm, R. Kobayashi, V. Konkov,
      S. Krishnamoorthy, M. Krishnan, Z. Lin, R. D. Lins, R. J. Littlefield,
      A. J. Logsdail, K. Lopata, W. Ma, A. V. Marenich, J. Martin del Campo,
   D. Mejia-Rodriguez, J. E. Moore, J. M. Mullin, T. Nakajima, D. R. Nascimento,
    J. A. Nichols, P. J. Nichols, J. Nieplocha, A. Otero-de-la-Roza, B. Palmer,
    A. Panyala, T. Pirojsirikul, B. Peng, R. Peverati, J. Pittner, L. Pollack,
   R. M. Richard, P. Sadayappan, G. C. Schatz, W. A. Shelton, D. W. Silverstein,
   D. M. A. Smith, T. A. Soares, D. Song, M. Swart, H. L. Taylor, G. S. Thomas,
            V. Tipparaju, D. G. Truhlar, K. Tsemekhman, T. Van Voorhis,
      A. Vazquez-Mayagoitia, P. Verma, O. Villa, A. Vishnu, K. D. Vogiatzis,
        D. Wang, J. H. Weare, M. J. Williamson, T. L. Windus, K. Wolinski,
        A. T. Wong, Q. Wu, C. Yang, Q. Yu, M. Zacharias, Z. Zhang, Y. Zhao,
                                and R. J. Harrison
                        "NWChem: Past, present, and future
                         J. Chem. Phys. 152, 184102 (2020)
                               doi:10.1063/5.0004997

                                      AUTHORS
                                      -------
        E. Apra, E. J. Bylaska, N. Govind, K. Kowalski, D. Mejia-Rodriguez,
        N. P. Bauman, A. Panyala, R. J. Harrison, M. Valiev, W. A. de Jong,
       T. P. Straatsma, H. J. J. van Dam, D. Wang, T. L. Windus, J. Hammond,
     J. Autschbach, R. de P. Soares, A. Kunitsa, K. Bhaskaran-Nair, J. Brabec,
      K. Lopata, S. A. Fischer, S. Krishnamoorthy, M. Jacquelin, R. Goswami,
       A. Woods, W. Ma, M. Klemm, O. Villa, Y. Chen, V. Anisimov, F. Aquino,
     S. Hirata, M. T. Hackler, E. Hermes, L. Jensen, J. E. Moore, J. C. Becca,
      V. Konjkov, T. Risthaus, M. Malagoli, A. Marenich, A. Otero-de-la-Roza,
        J. Mullin, P. Nichols, R. Peverati, J. Pittner, Y. Zhao, P.-D. Fan,
        A. Fonari, M. J. Williamson, J. R. Rehr, M. Dupuis, D. Silverstein,
    D. M. A. Smith, J. Nieplocha, V. Tipparaju, M. Krishnan, B. E. Van Kuiken,
        A. Vazquez-Mayagoitia, M. Swart, Q. Wu, T. Van Voorhis, A. A. Auer,
     M. Nooijen, L. D. Crosby, E. Brown, G. Cisneros, G. I. Fann, H. Fruchtl,
   J. Garza, K. Hirao, R. A. Kendall, J. A. Nichols, K. Tsemekhman, K. Wolinski,
     J. Anchell, D. E. Bernholdt, P. Borowski, T. Clark, D. Clerc, H. Dachsel,
   M. J. O. Deegan, K. Dyall, D. Elwood, E. Glendening, M. Gutowski, A. C. Hess,
         J. Jaffe, B. G. Johnson, J. Ju, R. Kobayashi, R. Kutteh, Z. Lin,
   R. Littlefield, X. Long, B. Meng, T. Nakajima, S. Niu, L. Pollack, M. Rosing,
   K. Glaesemann, G. Sandrone, M. Stave, H. Taylor, G. Thomas, J. H. van Lenthe,
                               A. T. Wong, Z. Zhang.

 Total times  cpu:        5.9s     wall:        5.9s
