 argument  1 = tms_opt.nwi
                                         
                                         


             Northwest Computational Chemistry Package (NWChem) 7.3.0
             --------------------------------------------------------


                    Environmental Molecular Sciences Laboratory
                       Pacific Northwest National Laboratory
                                Richland, WA 99352

                              Copyright (c) 1994-2025
                       Pacific Northwest National Laboratory
                            Battelle Memorial Institute

             NWChem is an open-source computational chemistry package
                        distributed under the terms of the
                      Educational Community License (ECL) 2.0
             A copy of the license is included with this distribution
                              in the LICENSE.TXT file

                                  ACKNOWLEDGMENT
                                  --------------

            This software and its documentation were developed at the
            EMSL at Pacific Northwest National Laboratory, a multiprogram
            national laboratory, operated for the U.S. Department of Energy
            by Battelle under Contract Number DE-AC05-76RL01830. Support
            for this work was provided by the Department of Energy Office
            of Biological and Environmental Research, Office of Basic
            Energy Sciences, and the Office of Advanced Scientific Computing.


           Job information
           ---------------

    hostname        = MIRO
    program         = nwchem
    date            = Tue Aug 25 08:30:05 2026

    compiled        = Wed_Dec_10_07:16:07_2025
    source          = /home/conda/feedstock_root/build_artifacts/bld/rattler-build_nwchem_1765343033/work
    nwchem branch   = 7.3.0
    nwchem revision = 3272822
    ga revision     = 5.9.2
    use scalapack   = T
    input           = tms_opt.nwi
    prefix          = tms_opt.
    data base       = ./tms_opt.db
    status          = startup
    nproc           =        1
    time left       =     -1s



           Memory information
           ------------------

    heap     =     26214398 doubles =      200.0 Mbytes
    stack    =     26214395 doubles =      200.0 Mbytes
    global   =     52428800 doubles =      400.0 Mbytes (distinct from heap & stack)
    total    =    104857593 doubles =      800.0 Mbytes
    verify   = yes
    hardfail = no 


           Directory information
           ---------------------

  0 permanent = .
  0 scratch   = .




                                NWChem Input Module
                                -------------------



 Scaling coordinates for geometry "geometry" by  1.889725989
 (inverse scale =  0.529177249)

 TD  symmetry detected

          ------
          auto-z
          ------
  autoz: The atoms group into disjoint clusters
 cluster   1:    1
 cluster   2:    2    6    7    8
 cluster   3:    3    9   10   11
 cluster   4:    4   12   13   14
 cluster   5:    5   15   16   17
 Connecting clusters   1   2 via atoms    1    2 r = 3.26
 Connecting clusters   1   3 via atoms    1    3 r = 3.26
 Connecting clusters   1   4 via atoms    1    4 r = 3.26
 Connecting clusters   1   5 via atoms    1    5 r = 3.26
  autoz: regenerating connections with new bonds
  no constraints, skipping    0.0000000000000000     
  no constraints, skipping    0.0000000000000000     


                             Geometry "geometry" -> ""
                             -------------------------

 Output coordinates in angstroms (scale by  1.889725989 to convert to a.u.)

  No.       Tag          Charge          X              Y              Z
 ---- ---------------- ---------- -------------- -------------- --------------
    1 Si                  14.0000     0.00000000     0.00000000     0.00000000
    2 C                    6.0000     1.88000000     1.88000000     1.88000000
    3 C                    6.0000    -1.88000000    -1.88000000     1.88000000
    4 C                    6.0000     1.88000000    -1.88000000    -1.88000000
    5 C                    6.0000    -1.88000000     1.88000000    -1.88000000
    6 H                    1.0000     1.88000000     1.88000000     2.97000000
    7 H                    1.0000     2.97000000     1.88000000     1.88000000
    8 H                    1.0000     1.88000000     2.97000000     1.88000000
    9 H                    1.0000    -1.88000000    -1.88000000     2.97000000
   10 H                    1.0000    -2.97000000    -1.88000000     1.88000000
   11 H                    1.0000    -1.88000000    -2.97000000     1.88000000
   12 H                    1.0000     1.88000000    -1.88000000    -2.97000000
   13 H                    1.0000     2.97000000    -1.88000000    -1.88000000
   14 H                    1.0000     1.88000000    -2.97000000    -1.88000000
   15 H                    1.0000    -1.88000000     1.88000000    -2.97000000
   16 H                    1.0000    -2.97000000     1.88000000    -1.88000000
   17 H                    1.0000    -1.88000000     2.97000000    -1.88000000

      Atomic Mass 
      ----------- 

      Si                27.976930
      C                 12.000000
      H                  1.007825


 Effective nuclear repulsion energy (a.u.)     161.3764659796

            Nuclear Dipole moment (a.u.) 
            ----------------------------
        X                 Y               Z
 ---------------- ---------------- ----------------
    -0.0000000000    -0.0000000000    -0.0000000000

      Symmetry information
      --------------------

 Group name              Td       
 Group number             42
 Group order              24
 No. of unique centers     3

      Symmetry unique atoms

     1    2    6



                                Z-matrix (autoz)
                                -------- 

 Units are Angstrom for bonds and degrees for angles

      Type          Name      I     J     K     L     M      Value
      ----------- --------  ----- ----- ----- ----- ----- ----------
    1 Stretch                  1     2                       3.25626
    2 Stretch                  1     3                       3.25626
    3 Stretch                  1     4                       3.25626
    4 Stretch                  1     5                       3.25626
    5 Stretch                  2     6                       1.09000
    6 Stretch                  2     7                       1.09000
    7 Stretch                  2     8                       1.09000
    8 Stretch                  3     9                       1.09000
    9 Stretch                  3    10                       1.09000
   10 Stretch                  3    11                       1.09000
   11 Stretch                  4    12                       1.09000
   12 Stretch                  4    13                       1.09000
   13 Stretch                  4    14                       1.09000
   14 Stretch                  5    15                       1.09000
   15 Stretch                  5    16                       1.09000
   16 Stretch                  5    17                       1.09000
   17 Bend                     1     2     6               125.26439
   18 Bend                     1     2     7               125.26439
   19 Bend                     1     2     8               125.26439
   20 Bend                     1     3     9               125.26439
   21 Bend                     1     3    10               125.26439
   22 Bend                     1     3    11               125.26439
   23 Bend                     1     4    12               125.26439
   24 Bend                     1     4    13               125.26439
   25 Bend                     1     4    14               125.26439
   26 Bend                     1     5    15               125.26439
   27 Bend                     1     5    16               125.26439
   28 Bend                     1     5    17               125.26439
   29 Bend                     2     1     3               109.47122
   30 Bend                     2     1     4               109.47122
   31 Bend                     2     1     5               109.47122
   32 Bend                     3     1     4               109.47122
   33 Bend                     3     1     5               109.47122
   34 Bend                     4     1     5               109.47122
   35 Bend                     6     2     7                90.00000
   36 Bend                     6     2     8                90.00000
   37 Bend                     7     2     8                90.00000
   38 Bend                     9     3    10                90.00000
   39 Bend                     9     3    11                90.00000
   40 Bend                    10     3    11                90.00000
   41 Bend                    12     4    13                90.00000
   42 Bend                    12     4    14                90.00000
   43 Bend                    13     4    14                90.00000
   44 Bend                    15     5    16                90.00000
   45 Bend                    15     5    17                90.00000
   46 Bend                    16     5    17                90.00000
   47 Torsion                  2     1     3     9           0.00000
   48 Torsion                  2     1     3    10         120.00000
   49 Torsion                  2     1     3    11        -120.00000
   50 Torsion                  2     1     4    12        -120.00000
   51 Torsion                  2     1     4    13           0.00000
   52 Torsion                  2     1     4    14         120.00000
   53 Torsion                  2     1     5    15         120.00000
   54 Torsion                  2     1     5    16        -120.00000
   55 Torsion                  2     1     5    17          -0.00000
   56 Torsion                  3     1     2     6           0.00000
   57 Torsion                  3     1     2     7         120.00000
   58 Torsion                  3     1     2     8        -120.00000
   59 Torsion                  3     1     4    12         120.00000
   60 Torsion                  3     1     4    13        -120.00000
   61 Torsion                  3     1     4    14          -0.00000
   62 Torsion                  3     1     5    15        -120.00000
   63 Torsion                  3     1     5    16          -0.00000
   64 Torsion                  3     1     5    17         120.00000
   65 Torsion                  4     1     2     6        -120.00000
   66 Torsion                  4     1     2     7           0.00000
   67 Torsion                  4     1     2     8         120.00000
   68 Torsion                  4     1     3     9         120.00000
   69 Torsion                  4     1     3    10        -120.00000
   70 Torsion                  4     1     3    11           0.00000
   71 Torsion                  4     1     5    15          -0.00000
   72 Torsion                  4     1     5    16         120.00000
   73 Torsion                  4     1     5    17        -120.00000
   74 Torsion                  5     1     2     6         120.00000
   75 Torsion                  5     1     2     7        -120.00000
   76 Torsion                  5     1     2     8           0.00000
   77 Torsion                  5     1     3     9        -120.00000
   78 Torsion                  5     1     3    10           0.00000
   79 Torsion                  5     1     3    11         120.00000
   80 Torsion                  5     1     4    12           0.00000
   81 Torsion                  5     1     4    13         120.00000
   82 Torsion                  5     1     4    14        -120.00000


            XYZ format geometry
            -------------------
    17
 geometry
 Si                    0.00000000     0.00000000     0.00000000
 C                     1.88000000     1.88000000     1.88000000
 C                    -1.88000000    -1.88000000     1.88000000
 C                     1.88000000    -1.88000000    -1.88000000
 C                    -1.88000000     1.88000000    -1.88000000
 H                     1.88000000     1.88000000     2.97000000
 H                     2.97000000     1.88000000     1.88000000
 H                     1.88000000     2.97000000     1.88000000
 H                    -1.88000000    -1.88000000     2.97000000
 H                    -2.97000000    -1.88000000     1.88000000
 H                    -1.88000000    -2.97000000     1.88000000
 H                     1.88000000    -1.88000000    -2.97000000
 H                     2.97000000    -1.88000000    -1.88000000
 H                     1.88000000    -2.97000000    -1.88000000
 H                    -1.88000000     1.88000000    -2.97000000
 H                    -2.97000000     1.88000000    -1.88000000
 H                    -1.88000000     2.97000000    -1.88000000

 ==============================================================================
                                internuclear distances
 ------------------------------------------------------------------------------
       center one      |      center two      | atomic units |  angstroms
 ------------------------------------------------------------------------------
    6 H                |   2 C                |     2.05980  |     1.09000
    7 H                |   2 C                |     2.05980  |     1.09000
    8 H                |   2 C                |     2.05980  |     1.09000
    9 H                |   3 C                |     2.05980  |     1.09000
   10 H                |   3 C                |     2.05980  |     1.09000
   11 H                |   3 C                |     2.05980  |     1.09000
   12 H                |   4 C                |     2.05980  |     1.09000
   13 H                |   4 C                |     2.05980  |     1.09000
   14 H                |   4 C                |     2.05980  |     1.09000
   15 H                |   5 C                |     2.05980  |     1.09000
   16 H                |   5 C                |     2.05980  |     1.09000
   17 H                |   5 C                |     2.05980  |     1.09000
 ------------------------------------------------------------------------------
                         number of included internuclear distances:         12
 ==============================================================================



 ==============================================================================
                                 internuclear angles
 ------------------------------------------------------------------------------
        center 1       |       center 2       |       center 3       |  degrees
 ------------------------------------------------------------------------------
    6 H                |   2 C                |   7 H                |    90.00
    6 H                |   2 C                |   8 H                |    90.00
    7 H                |   2 C                |   8 H                |    90.00
    9 H                |   3 C                |  10 H                |    90.00
    9 H                |   3 C                |  11 H                |    90.00
   10 H                |   3 C                |  11 H                |    90.00
   12 H                |   4 C                |  13 H                |    90.00
   12 H                |   4 C                |  14 H                |    90.00
   13 H                |   4 C                |  14 H                |    90.00
   15 H                |   5 C                |  16 H                |    90.00
   15 H                |   5 C                |  17 H                |    90.00
   16 H                |   5 C                |  17 H                |    90.00
 ------------------------------------------------------------------------------
                            number of included internuclear angles:         12
 ==============================================================================



  library name resolved from: environment
  library file name is: </home/miroi/miniconda3/envs/mace_env/share/nwchem/libraries/>
  


 Summary of "ao basis" -> "" (cartesian)
 ------------------------------------------------------------------------------
       Tag                 Description            Shells   Functions and Types
 ---------------- ------------------------------  ------  ---------------------
 *                          6-311G**                  on all atoms 



                                 NWChem DFT Module
                                 -----------------


                      Basis "ao basis" -> "ao basis" (cartesian)
                      -----
  Si (Silicon)
  ------------
            Exponent  Coefficients 
       -------------- ---------------------------------------------------------
  1 S  6.93792300E+04  0.000757
  1 S  1.03549400E+04  0.005932
  1 S  2.33387960E+03  0.031088
  1 S  6.57142950E+02  0.124967
  1 S  2.14301130E+02  0.386897
  1 S  7.76291680E+01  0.554888

  2 S  7.76291680E+01  0.177881
  2 S  3.06308070E+01  0.627765
  2 S  1.28012950E+01  0.247623

  3 S  3.92686600E+00  1.000000

  4 S  1.45234300E+00  1.000000

  5 S  2.56234000E-01  1.000000

  6 S  9.42790000E-02  1.000000

  7 P  3.35483190E+02  0.008866
  7 P  7.89003660E+01  0.068299
  7 P  2.49881500E+01  0.290958
  7 P  9.21971100E+00  0.732117

  8 P  3.62114000E+00  0.619879
  8 P  1.45131000E+00  0.439148

  9 P  5.04977000E-01  1.000000

 10 P  1.86317000E-01  1.000000

 11 P  6.54320000E-02  1.000000

 12 D  4.50000000E-01  1.000000

  C (Carbon)
  ----------
            Exponent  Coefficients 
       -------------- ---------------------------------------------------------
  1 S  4.56324000E+03  0.001967
  1 S  6.82024000E+02  0.015231
  1 S  1.54973000E+02  0.076127
  1 S  4.44553000E+01  0.260801
  1 S  1.30290000E+01  0.616462
  1 S  1.82773000E+00  0.221006

  2 S  2.09642000E+01  0.114660
  2 S  4.80331000E+00  0.919999
  2 S  1.45933000E+00 -0.003031

  3 P  2.09642000E+01  0.040249
  3 P  4.80331000E+00  0.237594
  3 P  1.45933000E+00  0.815854

  4 S  4.83456000E-01  1.000000

  5 P  4.83456000E-01  1.000000

  6 S  1.45585000E-01  1.000000

  7 P  1.45585000E-01  1.000000

  8 D  6.26000000E-01  1.000000

  H (Hydrogen)
  ------------
            Exponent  Coefficients 
       -------------- ---------------------------------------------------------
  1 S  3.38650000E+01  0.025494
  1 S  5.09479000E+00  0.190373
  1 S  1.15879000E+00  0.852161

  2 S  3.25840000E-01  1.000000

  3 S  1.02741000E-01  1.000000

  4 P  7.50000000E-01  1.000000



 Summary of "ao basis" -> "ao basis" (cartesian)
 ------------------------------------------------------------------------------
       Tag                 Description            Shells   Functions and Types
 ---------------- ------------------------------  ------  ---------------------
 Si                         6-311G**                12       27   6s5p1d
 C                          6-311G**                 8       19   4s3p1d
 H                          6-311G**                 4        6   3s1p




 Summary of "ao basis" -> "ao basis" (cartesian)
 ------------------------------------------------------------------------------
       Tag                 Description            Shells   Functions and Types
 ---------------- ------------------------------  ------  ---------------------
 Si                         6-311G**                12       27   6s5p1d
 C                          6-311G**                 8       19   4s3p1d
 H                          6-311G**                 4        6   3s1p


      Symmetry analysis of basis
      --------------------------

        a1         21
        a2          1
        e          24
        t1         36
        t2         93

  Caching 1-el integrals 

            General Information
            -------------------
          SCF calculation type: DFT
          Wavefunction type:  closed shell.
          No. of atoms     :    17
          No. of electrons :    50
           Alpha electrons :    25
            Beta electrons :    25
          Charge           :     0
          Spin multiplicity:     1
          Use of symmetry is: on ; symmetry adaption is: on 
          Maximum number of iterations:  50
          AO basis - number of functions:   175
                     number of shells:    92
          Convergence on energy requested:  1.00D-07
          Convergence on density requested:  1.00D-06
          Convergence on gradient requested:  5.00D-04

              XC Information
              --------------
                         PBE0 Method XC Functional
                     Hartree-Fock (Exact) Exchange  0.250          
          PerdewBurkeErnzerhof Exchange Functional  0.750          
            Perdew 1991 LDA Correlation Functional  1.000 local    
           PerdewBurkeErnz. Correlation Functional  1.000 non-local

             Grid Information
             ----------------
          Grid used for XC integration:  medium    
          Radial quadrature: Mura-Knowles        
          Angular quadrature: Lebedev. 
          Tag              B.-S. Rad. Rad. Pts. Rad. Cut. Ang. Pts.
          ---              ---------- --------- --------- ---------
          Si                  1.10       88          11.0       590
          C                   0.70       49          14.0       434
          H                   0.35       45          15.0       434
          Grid pruning is: on 
          Number of quadrature shells:   182
          Spatial weights used:  Erf1

          Convergence Information
          -----------------------
          Convergence aids based upon iterative change in 
          total energy or number of iterations. 
          Levelshifting, if invoked, occurs when the 
          HOMO/LUMO gap drops below (HL_TOL):  1.00D-02
          DIIS, if invoked, will attempt to extrapolate 
          using up to (NFOCK): 10 stored Fock matrices.

                    Damping( 0%)  Levelshifting(0.5)       DIIS
                  --------------- ------------------- ---------------
          dE  on:    start            ASAP                start   
          dE off:    2 iters         50 iters            50 iters 


      Screening Tolerance Information
      -------------------------------
          Density screening/tol_rho:  1.00D-10
          AO Gaussian exp screening on grid/accAOfunc:  16
          CD Gaussian exp screening on grid/accCDfunc:  20
          XC Gaussian exp screening on grid/accXCfunc:  20
          Schwarz screening/accCoul:  1.00D-08


      Superposition of Atomic Density Guess
      -------------------------------------

 Sum of atomic energies:        -445.50851803

      Non-variational initial energy
      ------------------------------

 Total energy =    -446.833438
 1-e energy   =    -927.859729
 2-e energy   =     319.649826
 HOMO         =      -0.298294
 LUMO         =      -0.259024


      Symmetry analysis of molecular orbitals - initial
      -------------------------------------------------

  Numbering of irreducible representations: 

     1 a1          2 a2          3 e           4 t1          5 t2      

  Orbital symmetries:

     1 a1          2 t2          3 t2          4 t2          5 a1      
     6 a1          7 t2          8 t2          9 t2         10 a1      
    11 t2         12 t2         13 t2         14 a1         15 t2      
    16 t2         17 t2         18 e          19 e          20 t1      
    21 t1         22 t1         23 t2         24 t2         25 t2      
    26 a1         27 t2         28 t2         29 t2         30 a1      
    31 t2         32 t2         33 t2         34 e          35 e       

   Time after variat. SCF:      0.4
   Time prior to 1st pass:      0.4

 Grid_pts file          = ./tms_opt.gridpts.0
 Record size in doubles =  12289        No. of grid_pts per rec  =   3070
 Max. records in memory =     40        Max. recs in file   = *********


           Memory utilization after 1st SCF pass: 
           Heap Space remaining (MW):        0.00                 359
          Stack Space remaining (MW):       26.21            26212972

   convergence    iter        energy       DeltaE   RMS-Dens  Diis-err    time
 ---------------- ----- ----------------- --------- --------- ---------  ------
 d= 0,ls=0.0,diis     1   -448.0267945496 -6.09D+02  1.49D-02  1.02D+00     0.8
 d= 0,ls=0.0,diis     2   -446.4040018173  1.62D+00  1.15D-02  7.13D+00     1.1
 d= 0,ls=0.0,diis     3   -448.2174427390 -1.81D+00  4.49D-04  1.75D-02     1.5
 d= 0,ls=0.0,diis     4   -448.2200040239 -2.56D-03  3.60D-04  1.49D-03     1.9
 d= 0,ls=0.0,diis     5   -448.2204162633 -4.12D-04  7.89D-05  2.40D-04     2.3
  Resetting Diis
 d= 0,ls=0.0,diis     6   -448.2204746088 -5.83D-05  1.25D-05  1.74D-05     2.7
 d= 0,ls=0.0,diis     7   -448.2204777078 -3.10D-06  8.91D-06  2.34D-07     3.1
 d= 0,ls=0.0,diis     8   -448.2204774404  2.67D-07  5.68D-06  1.31D-06     3.5
 d= 0,ls=0.0,diis     9   -448.2204777798 -3.39D-07  6.05D-07  2.66D-08     3.9
 d= 0,ls=0.0,diis    10   -448.2204777832 -3.32D-09  1.62D-07  8.56D-10     4.3


         Total DFT energy =     -448.220477783157
      One electron energy =     -931.411411060763
           Coulomb energy =      367.944673390659
    Exchange-Corr. energy =      -46.130206092635
 Nuclear repulsion energy =      161.376465979583

 Numeric. integr. density =       50.000037263037

     Total iterative time =      3.9s



                  Occupations of the irreducible representations
                  ----------------------------------------------

                     irrep           alpha         beta
                     --------     --------     --------
                     a1                5.0          5.0
                     a2                0.0          0.0
                     e                 2.0          2.0
                     t1                3.0          3.0
                     t2               15.0         15.0


                       DFT Final Molecular Orbital Analysis
                       ------------------------------------

 Vector    1  Occ=2.000000D+00  E=-6.640796D+01  Symmetry=a1
              MO Center=  1.8D-21, -6.7D-21,  1.9D-21, r^2= 4.7D-03
   Bfn.  Coefficient  Atom+Function         Bfn.  Coefficient  Atom+Function  
  ----- ------------  ---------------      ----- ------------  ---------------
     2      0.646362   1 Si s                 1      0.417847   1 Si s         

 Vector    2  Occ=2.000000D+00  E=-1.024154D+01  Symmetry=t2
              MO Center=  3.6D-01, -1.6D+00, -2.0D-01, r^2= 8.0D+00
   Bfn.  Coefficient  Atom+Function         Bfn.  Coefficient  Atom+Function  
  ----- ------------  ---------------      ----- ------------  ---------------
    66      0.412326   4 C  s                47     -0.349701   3 C  s         
    67      0.336510   4 C  s                48     -0.285400   3 C  s         
    28     -0.140401   2 C  s                29     -0.114585   2 C  s         
    85      0.077776   5 C  s                86      0.063475   5 C  s         

 Vector    3  Occ=2.000000D+00  E=-1.024154D+01  Symmetry=t2
              MO Center= -4.3D-01,  1.6D+00, -7.3D-01, r^2= 7.5D+00
   Bfn.  Coefficient  Atom+Function         Bfn.  Coefficient  Atom+Function  
  ----- ------------  ---------------      ----- ------------  ---------------
    85      0.440797   5 C  s                86      0.359746   5 C  s         
    28     -0.310686   2 C  s                29     -0.253559   2 C  s         
    66     -0.161942   4 C  s                67     -0.132165   4 C  s         
    47      0.031831   3 C  s                48      0.025978   3 C  s         

 Vector    4  Occ=2.000000D+00  E=-1.024154D+01  Symmetry=t2
              MO Center=  6.6D-02,  1.7D-02,  9.3D-01, r^2= 9.8D+00
   Bfn.  Coefficient  Atom+Function         Bfn.  Coefficient  Atom+Function  
  ----- ------------  ---------------      ----- ------------  ---------------
    28      0.349730   2 C  s                47     -0.339478   3 C  s         
    29      0.285424   2 C  s                48     -0.277056   3 C  s         
    66     -0.205697   4 C  s                85      0.195444   5 C  s         
    67     -0.167874   4 C  s                86      0.159507   5 C  s         

 Vector    5  Occ=2.000000D+00  E=-1.024154D+01  Symmetry=a1
              MO Center=  1.9D-09, -4.3D-10, -3.4D-09, r^2= 1.1D+01
   Bfn.  Coefficient  Atom+Function         Bfn.  Coefficient  Atom+Function  
  ----- ------------  ---------------      ----- ------------  ---------------
    28      0.281988   2 C  s                47      0.281988   3 C  s         
    66      0.281988   4 C  s                85      0.281988   5 C  s         
    29      0.230134   2 C  s                48      0.230134   3 C  s         
    67      0.230134   4 C  s                86      0.230134   5 C  s         

 Vector    6  Occ=2.000000D+00  E=-5.475608D+00  Symmetry=a1
              MO Center= -6.4D-18,  5.7D-18, -2.6D-18, r^2= 1.1D-01
   Bfn.  Coefficient  Atom+Function         Bfn.  Coefficient  Atom+Function  
  ----- ------------  ---------------      ----- ------------  ---------------
     4      0.551520   1 Si s                 3      0.545372   1 Si s         
     2     -0.305523   1 Si s                 1     -0.117154   1 Si s         
     5      0.093877   1 Si s         

 Vector    7  Occ=2.000000D+00  E=-3.808993D+00  Symmetry=t2
              MO Center= -4.4D-06,  1.1D-06,  5.7D-06, r^2= 1.0D-01
   Bfn.  Coefficient  Atom+Function         Bfn.  Coefficient  Atom+Function  
  ----- ------------  ---------------      ----- ------------  ---------------
    11      0.656715   1 Si py                8      0.383332   1 Si py        
    10     -0.170693   1 Si px               12      0.132197   1 Si pz        
     7     -0.099635   1 Si px                9      0.077165   1 Si pz        
    14      0.052143   1 Si py        

 Vector    8  Occ=2.000000D+00  E=-3.808993D+00  Symmetry=t2
              MO Center=  4.7D-06,  3.4D-10, -6.9D-11, r^2= 1.0D-01
   Bfn.  Coefficient  Atom+Function         Bfn.  Coefficient  Atom+Function  
  ----- ------------  ---------------      ----- ------------  ---------------
    12      0.677699   1 Si pz                9      0.395580   1 Si pz        
    11     -0.136424   1 Si py                8     -0.079632   1 Si py        
    15      0.053809   1 Si pz        

 Vector    9  Occ=2.000000D+00  E=-3.808993D+00  Symmetry=t2
              MO Center= -2.9D-07, -1.1D-06, -5.7D-06, r^2= 1.0D-01
   Bfn.  Coefficient  Atom+Function         Bfn.  Coefficient  Atom+Function  
  ----- ------------  ---------------      ----- ------------  ---------------
    10      0.669889   1 Si px                7      0.391021   1 Si px        
    11      0.167334   1 Si py                8      0.097675   1 Si py        
    13      0.053189   1 Si px               12      0.033695   1 Si pz        

 Vector   10  Occ=2.000000D+00  E=-7.142705D-01  Symmetry=a1
              MO Center= -4.6D-16, -5.0D-17,  7.5D-18, r^2= 1.4D+01
   Bfn.  Coefficient  Atom+Function         Bfn.  Coefficient  Atom+Function  
  ----- ------------  ---------------      ----- ------------  ---------------
    33      0.210750   2 C  s                52      0.210750   3 C  s         
    71      0.210750   4 C  s                90      0.210750   5 C  s         
    37      0.132721   2 C  s                56      0.132721   3 C  s         
    75      0.132721   4 C  s                94      0.132721   5 C  s         
    29     -0.080333   2 C  s                48     -0.080333   3 C  s         

 Vector   11  Occ=2.000000D+00  E=-7.141377D-01  Symmetry=t2
              MO Center=  2.0D+00,  8.6D-02,  6.2D-02, r^2= 1.0D+01
   Bfn.  Coefficient  Atom+Function         Bfn.  Coefficient  Atom+Function  
  ----- ------------  ---------------      ----- ------------  ---------------
    33      0.299634   2 C  s                71     -0.288927   4 C  s         
    37      0.189104   2 C  s                75     -0.182347   4 C  s         
    29     -0.114284   2 C  s                67      0.110200   4 C  s         
   105      0.085831   6 H  s               111      0.085932   7 H  s         
   117      0.085861   8 H  s               141     -0.082760  12 H  s         

 Vector   12  Occ=2.000000D+00  E=-7.141377D-01  Symmetry=t2
              MO Center= -1.8D+00,  5.9D-01, -8.4D-01, r^2= 9.6D+00
   Bfn.  Coefficient  Atom+Function         Bfn.  Coefficient  Atom+Function  
  ----- ------------  ---------------      ----- ------------  ---------------
    90      0.338031   5 C  s                52     -0.230733   3 C  s         
    94      0.213337   5 C  s                56     -0.145620   3 C  s         
    86     -0.128929   5 C  s                71     -0.103350   4 C  s         
   159      0.096876  15 H  s               165      0.096915  16 H  s         
   171      0.096846  17 H  s                48      0.088005   3 C  s         

 Vector   13  Occ=2.000000D+00  E=-7.141377D-01  Symmetry=t2
              MO Center= -1.4D-01, -6.8D-01,  7.8D-01, r^2= 1.3D+01
   Bfn.  Coefficient  Atom+Function         Bfn.  Coefficient  Atom+Function  
  ----- ------------  ---------------      ----- ------------  ---------------
    52      0.280126   3 C  s                33     -0.209413   2 C  s         
    71     -0.198720   4 C  s                56      0.176793   3 C  s         
    37     -0.132164   2 C  s                90      0.128007   5 C  s         
    75     -0.125416   4 C  s                48     -0.106844   3 C  s         
    94      0.080787   5 C  s               123      0.080319   9 H  s         

 Vector   14  Occ=2.000000D+00  E=-4.902747D-01  Symmetry=a1
              MO Center= -9.1D-14, -8.8D-13,  2.2D-13, r^2= 1.8D+00
   Bfn.  Coefficient  Atom+Function         Bfn.  Coefficient  Atom+Function  
  ----- ------------  ---------------      ----- ------------  ---------------
     5      0.677342   1 Si s                 6      0.447112   1 Si s         
     4     -0.339837   1 Si s                 3     -0.205752   1 Si s         
     2      0.089305   1 Si s                 1      0.032412   1 Si s         

 Vector   15  Occ=2.000000D+00  E=-3.742730D-01  Symmetry=t2
              MO Center= -1.0D-01,  2.4D-01,  6.1D-01, r^2= 1.3D+01
   Bfn.  Coefficient  Atom+Function         Bfn.  Coefficient  Atom+Function  
  ----- ------------  ---------------      ----- ------------  ---------------
   111      0.147689   7 H  s                34      0.146217   2 C  px        
   129     -0.128196  10 H  s                53      0.126777   3 C  px        
   135      0.115872  11 H  s                54     -0.115097   3 C  py        
    93     -0.101006   5 C  pz              159      0.101466  15 H  s         
    30      0.099121   2 C  px               38      0.099325   2 C  px        

 Vector   16  Occ=2.000000D+00  E=-3.742730D-01  Symmetry=t2
              MO Center= -7.3D-01, -4.3D-01, -4.5D-01, r^2= 1.3D+01
   Bfn.  Coefficient  Atom+Function         Bfn.  Coefficient  Atom+Function  
  ----- ------------  ---------------      ----- ------------  ---------------
   171      0.147721  17 H  s                92      0.146541   5 C  py        
   123      0.146767   9 H  s                55      0.145609   3 C  pz        
   147      0.131311  13 H  s                72      0.130490   4 C  px        
    88      0.099294   5 C  py               96      0.099307   5 C  py        
    51      0.098660   3 C  pz               59      0.098664   3 C  pz        

 Vector   17  Occ=2.000000D+00  E=-3.742730D-01  Symmetry=t2
              MO Center=  8.4D-01,  1.9D-01, -1.7D-01, r^2= 1.3D+01
   Bfn.  Coefficient  Atom+Function         Bfn.  Coefficient  Atom+Function  
  ----- ------------  ---------------      ----- ------------  ---------------
   105      0.143869   6 H  s                36      0.142592   2 C  pz        
   153      0.137375  14 H  s                73     -0.136241   4 C  py        
   141     -0.124975  12 H  s                74      0.123751   4 C  pz        
   117     -0.118481   8 H  s                35     -0.117399   2 C  py        
    91     -0.106573   5 C  px              165      0.107043  16 H  s         

 Vector   18  Occ=2.000000D+00  E=-3.742291D-01  Symmetry=e
              MO Center= -4.4D-12,  8.5D-12, -1.2D-11, r^2= 1.4D+01
   Bfn.  Coefficient  Atom+Function         Bfn.  Coefficient  Atom+Function  
  ----- ------------  ---------------      ----- ------------  ---------------
    34      0.124127   2 C  px               53     -0.124127   3 C  px        
    72      0.124127   4 C  px               91     -0.124127   5 C  px        
   111      0.124047   7 H  s               129      0.124047  10 H  s         
   147      0.124047  13 H  s               165      0.124047  16 H  s         
    38      0.085371   2 C  px               57     -0.085371   3 C  px        

 Vector   19  Occ=2.000000D+00  E=-3.742291D-01  Symmetry=e
              MO Center=  7.6D-12, -4.2D-11, -4.6D-11, r^2= 1.4D+01
   Bfn.  Coefficient  Atom+Function         Bfn.  Coefficient  Atom+Function  
  ----- ------------  ---------------      ----- ------------  ---------------
    35      0.111536   2 C  py               54     -0.111536   3 C  py        
    73     -0.111536   4 C  py               92      0.111536   5 C  py        
   117      0.111464   8 H  s               135      0.111464  11 H  s         
   153      0.111464  14 H  s               171      0.111464  17 H  s         
    36     -0.103457   2 C  pz               55     -0.103457   3 C  pz        

 Vector   20  Occ=2.000000D+00  E=-3.737060D-01  Symmetry=t1
              MO Center= -4.5D-02, -6.8D-01, -1.4D-01, r^2= 1.3D+01
   Bfn.  Coefficient  Atom+Function         Bfn.  Coefficient  Atom+Function  
  ----- ------------  ---------------      ----- ------------  ---------------
   135     -0.137410  11 H  s               153      0.137410  14 H  s         
    54      0.135231   3 C  py               73     -0.135231   4 C  py        
   141     -0.111112  12 H  s               159      0.111112  15 H  s         
    74      0.109351   4 C  pz               93     -0.109351   5 C  pz        
   105     -0.097299   6 H  s               123      0.097299   9 H  s         

 Vector   21  Occ=2.000000D+00  E=-3.737060D-01  Symmetry=t1
              MO Center=  1.0D+00,  4.5D-01, -2.8D-01, r^2= 1.3D+01
   Bfn.  Coefficient  Atom+Function         Bfn.  Coefficient  Atom+Function  
  ----- ------------  ---------------      ----- ------------  ---------------
   111      0.147121   7 H  s               147     -0.147121  13 H  s         
    34      0.144788   2 C  px               72     -0.144788   4 C  px        
   117     -0.115323   8 H  s               171      0.115323  17 H  s         
    35     -0.113494   2 C  py               92      0.113494   5 C  py        
    30      0.098227   2 C  px               38      0.098330   2 C  px        

 Vector   22  Occ=2.000000D+00  E=-3.737060D-01  Symmetry=t1
              MO Center= -9.7D-01,  2.4D-01,  4.2D-01, r^2= 1.3D+01
   Bfn.  Coefficient  Atom+Function         Bfn.  Coefficient  Atom+Function  
  ----- ------------  ---------------      ----- ------------  ---------------
   129     -0.145900  10 H  s               165      0.145900  16 H  s         
    53      0.143587   3 C  px               91     -0.143587   5 C  px        
   105     -0.116361   6 H  s               123      0.116361   9 H  s         
    36     -0.114516   2 C  pz               55      0.114516   3 C  pz        
    49      0.097412   3 C  px               57      0.097514   3 C  px        

 Vector   23  Occ=2.000000D+00  E=-2.723675D-01  Symmetry=t2
              MO Center=  8.2D-02, -1.1D+00, -4.2D-02, r^2= 6.8D+00
   Bfn.  Coefficient  Atom+Function         Bfn.  Coefficient  Atom+Function  
  ----- ------------  ---------------      ----- ------------  ---------------
    18      0.225081   1 Si pz               75     -0.194194   4 C  s         
    56      0.184272   3 C  s                78     -0.144572   4 C  pz        
    76      0.141577   4 C  px               77     -0.138651   4 C  py        
    59     -0.137500   3 C  pz               57      0.134506   3 C  px        
    58      0.131090   3 C  py               71     -0.129099   4 C  s         

 Vector   24  Occ=2.000000D+00  E=-2.723675D-01  Symmetry=t2
              MO Center=  8.1D-03,  1.1D+00,  1.6D-02, r^2= 6.8D+00
   Bfn.  Coefficient  Atom+Function         Bfn.  Coefficient  Atom+Function  
  ----- ------------  ---------------      ----- ------------  ---------------
    16      0.225243   1 Si px               37      0.190283   2 C  s         
    94     -0.188381   5 C  s                38     -0.141789   2 C  px        
    95     -0.140433   5 C  px               40     -0.138790   2 C  pz        
    97     -0.137435   5 C  pz               39     -0.135665   2 C  py        
    96      0.134216   5 C  py               33      0.126499   2 C  s         

 Vector   25  Occ=2.000000D+00  E=-2.723675D-01  Symmetry=t2
              MO Center= -9.1D-02, -9.2D-04,  2.7D-02, r^2= 8.0D+00
   Bfn.  Coefficient  Atom+Function         Bfn.  Coefficient  Atom+Function  
  ----- ------------  ---------------      ----- ------------  ---------------
    17      0.253106   1 Si py               56     -0.146786   3 C  s         
    94      0.143940   5 C  s                37      0.137093   2 C  s         
    75     -0.134246   4 C  s                20      0.121760   1 Si py        
    58     -0.111551   3 C  py               96     -0.109522   5 C  py        
    39     -0.104642   2 C  py               57     -0.104687   3 C  px        

 Vector   26  Occ=0.000000D+00  E=-2.034339D-01  Symmetry=a1
              MO Center=  2.8D-16, -1.7D-15, -4.6D-19, r^2= 9.6D+00
   Bfn.  Coefficient  Atom+Function         Bfn.  Coefficient  Atom+Function  
  ----- ------------  ---------------      ----- ------------  ---------------
     5      0.287219   1 Si s                37     -0.199865   2 C  s         
    56     -0.199865   3 C  s                75     -0.199865   4 C  s         
    94     -0.199865   5 C  s                33     -0.127633   2 C  s         
    52     -0.127633   3 C  s                71     -0.127633   4 C  s         
    90     -0.127633   5 C  s                 4     -0.118484   1 Si s         

 Vector   27  Occ=0.000000D+00  E=-1.159195D-01  Symmetry=t2
              MO Center= -3.2D-01, -8.5D-02,  1.2D-01, r^2= 4.4D+00
   Bfn.  Coefficient  Atom+Function         Bfn.  Coefficient  Atom+Function  
  ----- ------------  ---------------      ----- ------------  ---------------
    17      0.421537   1 Si py               18     -0.299118   1 Si pz        
    20      0.281137   1 Si py               56      0.270919   3 C  s         
    21     -0.199492   1 Si pz               94     -0.198977   5 C  s         
    14      0.177531   1 Si py               52      0.142478   3 C  s         
    11     -0.128989   1 Si py               58      0.129457   3 C  py        

 Vector   28  Occ=0.000000D+00  E=-1.159195D-01  Symmetry=t2
              MO Center=  3.4D-01, -7.8D-02, -5.9D-02, r^2= 4.4D+00
   Bfn.  Coefficient  Atom+Function         Bfn.  Coefficient  Atom+Function  
  ----- ------------  ---------------      ----- ------------  ---------------
    18      0.417789   1 Si pz               17      0.315465   1 Si py        
    21      0.278637   1 Si pz               75      0.262730   4 C  s         
    37     -0.215381   2 C  s                20      0.210394   1 Si py        
    15      0.175952   1 Si pz               71      0.138171   4 C  s         
    14      0.132858   1 Si py               12     -0.127842   1 Si pz        

 Vector   29  Occ=0.000000D+00  E=-1.159195D-01  Symmetry=t2
              MO Center= -1.5D-02,  1.6D-01, -6.1D-02, r^2= 4.5D+00
   Bfn.  Coefficient  Atom+Function         Bfn.  Coefficient  Atom+Function  
  ----- ------------  ---------------      ----- ------------  ---------------
    16      0.511754   1 Si px               19      0.341306   1 Si px        
    94      0.222230   5 C  s                13      0.215525   1 Si px        
    37     -0.192159   2 C  s                10     -0.156594   1 Si px        
    75     -0.141525   4 C  s                18      0.123773   1 Si pz        
    90      0.116872   5 C  s                56      0.111454   3 C  s         

 Vector   30  Occ=0.000000D+00  E= 6.486058D-02  Symmetry=a1
              MO Center=  1.9D-13,  2.1D-13, -1.2D-13, r^2= 2.1D+01
   Bfn.  Coefficient  Atom+Function         Bfn.  Coefficient  Atom+Function  
  ----- ------------  ---------------      ----- ------------  ---------------
    37      0.977735   2 C  s                56      0.977735   3 C  s         
    75      0.977735   4 C  s                94      0.977735   5 C  s         
   106     -0.457356   6 H  s               112     -0.457356   7 H  s         
   118     -0.457356   8 H  s               124     -0.457356   9 H  s         
   130     -0.457356  10 H  s               136     -0.457356  11 H  s         

 Vector   31  Occ=0.000000D+00  E= 7.489561D-02  Symmetry=t2
              MO Center= -9.4D-03,  3.9D-03, -1.6D+00, r^2= 1.9D+01
   Bfn.  Coefficient  Atom+Function         Bfn.  Coefficient  Atom+Function  
  ----- ------------  ---------------      ----- ------------  ---------------
    75      1.265944   4 C  s                94     -1.270256   5 C  s         
   154     -0.661247  14 H  s               172      0.663094  17 H  s         
   148     -0.591246  13 H  s               166      0.593093  16 H  s         
   142     -0.541975  12 H  s               160      0.544393  15 H  s         
    56      0.530631   3 C  s                37     -0.526319   2 C  s         

 Vector   32  Occ=0.000000D+00  E= 7.489561D-02  Symmetry=t2
              MO Center= -7.7D-01, -1.9D+00,  4.3D-01, r^2= 1.7D+01
   Bfn.  Coefficient  Atom+Function         Bfn.  Coefficient  Atom+Function  
  ----- ------------  ---------------      ----- ------------  ---------------
    56      1.487106   3 C  s                75     -1.107076   4 C  s         
   124     -0.747028   9 H  s               130     -0.698773  10 H  s         
   136     -0.662163  11 H  s               142      0.584244  12 H  s         
    94     -0.554315   5 C  s               148      0.535989  13 H  s         
   154      0.449041  14 H  s               160      0.347472  15 H  s         

 Vector   33  Occ=0.000000D+00  E= 7.489561D-02  Symmetry=t2
              MO Center=  7.8D-01,  1.9D+00,  1.2D+00, r^2= 1.6D+01
   Bfn.  Coefficient  Atom+Function         Bfn.  Coefficient  Atom+Function  
  ----- ------------  ---------------      ----- ------------  ---------------
    37      1.588606   2 C  s                94     -0.954066   5 C  s         
   112     -0.782164   7 H  s               106     -0.747180   6 H  s         
   118     -0.722497   8 H  s                56     -0.581382   3 C  s         
   166      0.510362  16 H  s               160      0.475378  15 H  s         
   172      0.366644  17 H  s               130      0.350724  10 H  s         

 Vector   34  Occ=0.000000D+00  E= 1.365975D-01  Symmetry=e
              MO Center=  6.2D-16,  2.8D-15, -3.7D-15, r^2= 2.1D+01
   Bfn.  Coefficient  Atom+Function         Bfn.  Coefficient  Atom+Function  
  ----- ------------  ---------------      ----- ------------  ---------------
   118      1.014837   8 H  s               136      1.014837  11 H  s         
   154      1.014837  14 H  s               172      1.014837  17 H  s         
   106     -0.728637   6 H  s               124     -0.728637   9 H  s         
   142     -0.728637  12 H  s               160     -0.728637  15 H  s         
    39     -0.405368   2 C  py               58      0.405368   3 C  py        

 Vector   35  Occ=0.000000D+00  E= 1.365975D-01  Symmetry=e
              MO Center=  1.0D-12, -3.8D-13,  4.9D-13, r^2= 2.1D+01
   Bfn.  Coefficient  Atom+Function         Bfn.  Coefficient  Atom+Function  
  ----- ------------  ---------------      ----- ------------  ---------------
   112      1.006595   7 H  s               130      1.006595  10 H  s         
   148      1.006595  13 H  s               166      1.006595  16 H  s         
   106     -0.751154   6 H  s               124     -0.751154   9 H  s         
   142     -0.751154  12 H  s               160     -0.751154  15 H  s         
    38     -0.402076   2 C  px               57      0.402076   3 C  px        

 Vector   36  Occ=0.000000D+00  E= 1.393673D-01  Symmetry=t2
              MO Center= -4.0D-01, -2.2D-01, -8.2D-02, r^2= 2.0D+01
   Bfn.  Coefficient  Atom+Function         Bfn.  Coefficient  Atom+Function  
  ----- ------------  ---------------      ----- ------------  ---------------
   124      1.220026   9 H  s               160     -1.008944  15 H  s         
   172      0.963994  17 H  s               148      0.894065  13 H  s         
   142     -0.834911  12 H  s               136     -0.752912  11 H  s         
   106      0.623830   6 H  s               112     -0.513351   7 H  s         
   130     -0.508950  10 H  s                59     -0.496944   3 C  pz        

 Vector   37  Occ=0.000000D+00  E= 1.393673D-01  Symmetry=t2
              MO Center=  2.4D-01, -1.3D-01,  5.0D-01, r^2= 2.0D+01
   Bfn.  Coefficient  Atom+Function         Bfn.  Coefficient  Atom+Function  
  ----- ------------  ---------------      ----- ------------  ---------------
   118      1.242907   8 H  s               130      1.071425  10 H  s         
   136     -0.993105  11 H  s               142      0.961652  12 H  s         
   112     -0.821623   7 H  s               154     -0.719915  14 H  s         
   160     -0.511101  15 H  s                39     -0.504028   2 C  py        
   172      0.470113  17 H  s               106     -0.438659   6 H  s         

 Vector   38  Occ=0.000000D+00  E= 1.393673D-01  Symmetry=t2
              MO Center=  1.6D-01,  3.5D-01, -4.2D-01, r^2= 2.0D+01
   Bfn.  Coefficient  Atom+Function         Bfn.  Coefficient  Atom+Function  
  ----- ------------  ---------------      ----- ------------  ---------------
   166      1.262112  16 H  s               154      1.050768  14 H  s         
   106      1.021863   6 H  s               148     -0.900908  13 H  s         
   112     -0.828973   7 H  s               172     -0.689565  17 H  s         
   160     -0.588725  15 H  s                95      0.511686   5 C  px        
   130      0.467770  10 H  s                77      0.417093   4 C  py        

 Vector   39  Occ=0.000000D+00  E= 1.435805D-01  Symmetry=t1
              MO Center=  1.4D-01, -5.7D-01,  7.0D-01, r^2= 2.0D+01
   Bfn.  Coefficient  Atom+Function         Bfn.  Coefficient  Atom+Function  
  ----- ------------  ---------------      ----- ------------  ---------------
   106      1.059630   6 H  s               124     -1.059630   9 H  s         
   136      1.021251  11 H  s               154     -1.021251  14 H  s         
   118     -0.689838   8 H  s               172      0.689838  17 H  s         
   142      0.651459  12 H  s               160     -0.651459  15 H  s         
    40     -0.449446   2 C  pz               59      0.449446   3 C  pz        

 Vector   40  Occ=0.000000D+00  E= 1.435805D-01  Symmetry=t1
              MO Center= -1.3D-01,  5.7D-01,  2.3D-02, r^2= 2.0D+01
   Bfn.  Coefficient  Atom+Function         Bfn.  Coefficient  Atom+Function  
  ----- ------------  ---------------      ----- ------------  ---------------
   118      1.041425   8 H  s               172     -1.041425  17 H  s         
   130     -0.915072  10 H  s               166      0.915072  16 H  s         
   112     -0.844017   7 H  s               148      0.844017  13 H  s         
   136      0.717665  11 H  s               154     -0.717665  14 H  s         
    39     -0.441724   2 C  py               96      0.441724   5 C  py        

 Vector   41  Occ=0.000000D+00  E= 1.435805D-01  Symmetry=t1
              MO Center= -1.0D-02, -2.4D-03, -7.2D-01, r^2= 2.0D+01
   Bfn.  Coefficient  Atom+Function         Bfn.  Coefficient  Atom+Function  
  ----- ------------  ---------------      ----- ------------  ---------------
   142      1.077854  12 H  s               160     -1.077854  15 H  s         
   130     -0.873672  10 H  s               166      0.873672  16 H  s         
   112      0.867768   7 H  s               148     -0.867768  13 H  s         
   106     -0.663586   6 H  s               124      0.663586   9 H  s         
    78      0.457176   4 C  pz               97     -0.457176   5 C  pz        

 Vector   42  Occ=0.000000D+00  E= 1.711328D-01  Symmetry=t2
              MO Center= -2.7D-01, -2.7D-01, -7.9D-02, r^2= 7.7D+00
   Bfn.  Coefficient  Atom+Function         Bfn.  Coefficient  Atom+Function  
  ----- ------------  ---------------      ----- ------------  ---------------
    21      1.396638   1 Si pz               18     -0.962802   1 Si pz        
    20      0.411501   1 Si py               19      0.406632   1 Si px        
    40      0.380334   2 C  pz               78      0.300376   4 C  pz        
    97      0.299418   5 C  pz               17     -0.283677   1 Si py        
   123     -0.282919   9 H  s                16     -0.280321   1 Si px        

 Vector   43  Occ=0.000000D+00  E= 1.711328D-01  Symmetry=t2
              MO Center=  3.2D-01,  4.3D-02, -1.3D-01, r^2= 7.8D+00
   Bfn.  Coefficient  Atom+Function         Bfn.  Coefficient  Atom+Function  
  ----- ------------  ---------------      ----- ------------  ---------------
    20      1.422212   1 Si py               17     -0.980432   1 Si py        
    21     -0.475010   1 Si pz               58      0.370992   3 C  py        
    96      0.333188   5 C  py               18      0.327458   1 Si pz        
   153      0.285490  14 H  s               117     -0.279439   8 H  s         
    39      0.277588   2 C  py              171     -0.270540  17 H  s         

 Vector   44  Occ=0.000000D+00  E= 1.711328D-01  Symmetry=t2
              MO Center= -4.7D-02,  2.2D-01,  2.1D-01, r^2= 7.8D+00
   Bfn.  Coefficient  Atom+Function         Bfn.  Coefficient  Atom+Function  
  ----- ------------  ---------------      ----- ------------  ---------------
    19      1.443250   1 Si px               16     -0.994935   1 Si px        
    76      0.372398   4 C  px               21     -0.330225   1 Si pz        
    57      0.312348   3 C  px               95      0.307464   5 C  px        
    20     -0.305389   1 Si py              111     -0.289059   7 H  s         
   129      0.278667  10 H  s               165      0.279448  16 H  s         

 Vector   45  Occ=0.000000D+00  E= 2.746511D-01  Symmetry=e
              MO Center= -1.2D-15,  2.3D-15, -4.0D-15, r^2= 1.3D+01
   Bfn.  Coefficient  Atom+Function         Bfn.  Coefficient  Atom+Function  
  ----- ------------  ---------------      ----- ------------  ---------------
   105      0.589023   6 H  s               123      0.589023   9 H  s         
   141      0.589023  12 H  s               159      0.589023  15 H  s         
    40     -0.427808   2 C  pz               59     -0.427808   3 C  pz        
    78      0.427808   4 C  pz               97      0.427808   5 C  pz        
   117     -0.352696   8 H  s               135     -0.352696  11 H  s         

 Vector   46  Occ=0.000000D+00  E= 2.746511D-01  Symmetry=e
              MO Center=  3.9D-15,  1.8D-14,  6.4D-16, r^2= 1.3D+01
   Bfn.  Coefficient  Atom+Function         Bfn.  Coefficient  Atom+Function  
  ----- ------------  ---------------      ----- ------------  ---------------
   111      0.543702   7 H  s               129      0.543702  10 H  s         
   147      0.543702  13 H  s               165      0.543702  16 H  s         
   117     -0.476515   8 H  s               135     -0.476515  11 H  s         
   153     -0.476515  14 H  s               171     -0.476515  17 H  s         
    38     -0.394891   2 C  px               57      0.394891   3 C  px        

 Vector   47  Occ=0.000000D+00  E= 2.866136D-01  Symmetry=a1
              MO Center= -1.5D-16,  1.1D-15,  1.4D-15, r^2= 5.4D+00
   Bfn.  Coefficient  Atom+Function         Bfn.  Coefficient  Atom+Function  
  ----- ------------  ---------------      ----- ------------  ---------------
     6      1.801934   1 Si s                 5     -1.565824   1 Si s         
    37      0.262849   2 C  s                56      0.262849   3 C  s         
    75      0.262849   4 C  s                94      0.262849   5 C  s         
     4      0.254922   1 Si s                 3      0.175916   1 Si s         
    22     -0.148470   1 Si dxx              25     -0.148470   1 Si dyy       

 Vector   48  Occ=0.000000D+00  E= 3.032149D-01  Symmetry=t1
              MO Center=  1.9D-01,  9.4D-01, -1.5D-01, r^2= 1.3D+01
   Bfn.  Coefficient  Atom+Function         Bfn.  Coefficient  Atom+Function  
  ----- ------------  ---------------      ----- ------------  ---------------
   117      0.723912   8 H  s               171     -0.723912  17 H  s         
    39     -0.486904   2 C  py               96      0.486904   5 C  py        
   111     -0.462978   7 H  s               118     -0.461572   8 H  s         
   147      0.462978  13 H  s               172      0.461572  17 H  s         
   141     -0.389992  12 H  s               159      0.389992  15 H  s         

 Vector   49  Occ=0.000000D+00  E= 3.032149D-01  Symmetry=t1
              MO Center= -1.5D-01,  1.5D-02,  2.0D-01, r^2= 1.4D+01
   Bfn.  Coefficient  Atom+Function         Bfn.  Coefficient  Atom+Function  
  ----- ------------  ---------------      ----- ------------  ---------------
   105      0.567891   6 H  s               123     -0.567891   9 H  s         
   129      0.553646  10 H  s               165     -0.553646  16 H  s         
   111     -0.474782   7 H  s               147      0.474782  13 H  s         
   141     -0.460537  12 H  s               159      0.460537  15 H  s         
    40     -0.381963   2 C  pz               59      0.381963   3 C  pz        

 Vector   50  Occ=0.000000D+00  E= 3.032149D-01  Symmetry=t1
              MO Center= -3.9D-02, -9.6D-01, -4.8D-02, r^2= 1.3D+01
   Bfn.  Coefficient  Atom+Function         Bfn.  Coefficient  Atom+Function  
  ----- ------------  ---------------      ----- ------------  ---------------
   135      0.729503  11 H  s               153     -0.729503  14 H  s         
    58      0.490664   3 C  py               77     -0.490664   4 C  py        
   136     -0.465136  11 H  s               154      0.465136  14 H  s         
   141      0.416553  12 H  s               159     -0.416553  15 H  s         
   105      0.383559   6 H  s               123     -0.383559   9 H  s         

 Vector   51  Occ=0.000000D+00  E= 3.644064D-01  Symmetry=t2
              MO Center=  6.4D-03,  2.1D-02, -1.7D-01, r^2= 1.2D+01
   Bfn.  Coefficient  Atom+Function         Bfn.  Coefficient  Atom+Function  
  ----- ------------  ---------------      ----- ------------  ---------------
    19      0.994996   1 Si px               16     -0.627319   1 Si px        
   165     -0.612110  16 H  s               147      0.596056  13 H  s         
   111      0.483929   7 H  s               129     -0.467874  10 H  s         
   166      0.456589  16 H  s               148     -0.447707  13 H  s         
    95     -0.400106   5 C  px               76     -0.390655   4 C  px        

 Vector   52  Occ=0.000000D+00  E= 3.644064D-01  Symmetry=t2
              MO Center= -7.2D-02,  2.2D-02,  1.6D-01, r^2= 1.2D+01
   Bfn.  Coefficient  Atom+Function         Bfn.  Coefficient  Atom+Function  
  ----- ------------  ---------------      ----- ------------  ---------------
    20      0.988884   1 Si py              135     -0.627308  11 H  s         
    17     -0.623466   1 Si py              117      0.571284   8 H  s         
   171      0.502067  17 H  s               136      0.464274  11 H  s         
   153     -0.446044  14 H  s               118     -0.433276   8 H  s         
    58     -0.408809   3 C  py              111     -0.397475   7 H  s         

 Vector   53  Occ=0.000000D+00  E= 3.644064D-01  Symmetry=t2
              MO Center=  6.6D-02, -4.2D-02,  4.8D-03, r^2= 1.2D+01
   Bfn.  Coefficient  Atom+Function         Bfn.  Coefficient  Atom+Function  
  ----- ------------  ---------------      ----- ------------  ---------------
    21      1.032221   1 Si pz               18     -0.650789   1 Si pz        
   141     -0.600491  12 H  s               105      0.568820   6 H  s         
   123      0.551570   9 H  s               159     -0.519898  15 H  s         
   142      0.454572  12 H  s               106     -0.437048   6 H  s         
   124     -0.427504   9 H  s               160      0.409981  15 H  s         

 Vector   54  Occ=0.000000D+00  E= 4.117798D-01  Symmetry=t2
              MO Center=  2.3D-01,  3.4D-02,  1.1D-01, r^2= 8.1D+00
   Bfn.  Coefficient  Atom+Function         Bfn.  Coefficient  Atom+Function  
  ----- ------------  ---------------      ----- ------------  ---------------
    24      0.899576   1 Si dxz              38     -0.631764   2 C  px        
    40     -0.610756   2 C  pz               37     -0.564880   2 C  s         
    76      0.539900   4 C  px              147     -0.517052  13 H  s         
    39     -0.510202   2 C  py              111      0.507983   7 H  s         
    20     -0.488636   1 Si py               78     -0.476508   4 C  pz        

 Vector   55  Occ=0.000000D+00  E= 4.117798D-01  Symmetry=t2
              MO Center= -6.6D-02, -4.2D-01,  6.4D-02, r^2= 7.9D+00
   Bfn.  Coefficient  Atom+Function         Bfn.  Coefficient  Atom+Function  
  ----- ------------  ---------------      ----- ------------  ---------------
    58      0.705026   3 C  py               23      0.678631   1 Si dxy       
    26     -0.653071   1 Si dyz              77     -0.633714   4 C  py        
    56     -0.624157   3 C  s                57      0.617840   3 C  px        
    59     -0.613784   3 C  pz              153     -0.589121  14 H  s         
   135      0.582081  11 H  s                75      0.534001   4 C  s         

 Vector   56  Occ=0.000000D+00  E= 4.117798D-01  Symmetry=t2
              MO Center= -1.6D-01,  3.9D-01, -1.8D-01, r^2= 7.9D+00
   Bfn.  Coefficient  Atom+Function         Bfn.  Coefficient  Atom+Function  
  ----- ------------  ---------------      ----- ------------  ---------------
    96      0.738723   5 C  py               97     -0.686913   5 C  pz        
    94      0.677371   5 C  s                26      0.673389   1 Si dyz       
    95     -0.676127   5 C  px               23      0.605418   1 Si dxy       
   117      0.571812   8 H  s               171     -0.552869  17 H  s         
    39     -0.546842   2 C  py              141      0.439332  12 H  s         

 Vector   57  Occ=0.000000D+00  E= 5.259583D-01  Symmetry=e
              MO Center=  5.7D-17,  2.6D-16, -1.9D-16, r^2= 5.1D+00
   Bfn.  Coefficient  Atom+Function         Bfn.  Coefficient  Atom+Function  
  ----- ------------  ---------------      ----- ------------  ---------------
    22      0.785240   1 Si dxx              25     -0.678443   1 Si dyy       
   112     -0.430114   7 H  s               130     -0.430114  10 H  s         
   148     -0.430114  13 H  s               166     -0.430114  16 H  s         
   118      0.371617   8 H  s               136      0.371617  11 H  s         
   154      0.371617  14 H  s               172      0.371617  17 H  s         

 Vector   58  Occ=0.000000D+00  E= 5.259583D-01  Symmetry=e
              MO Center=  2.1D-14,  7.3D-15,  1.7D-14, r^2= 5.1D+00
   Bfn.  Coefficient  Atom+Function         Bfn.  Coefficient  Atom+Function  
  ----- ------------  ---------------      ----- ------------  ---------------
    27      0.845057   1 Si dzz              25     -0.515017   1 Si dyy       
   106     -0.462880   6 H  s               124     -0.462880   9 H  s         
   142     -0.462880  12 H  s               160     -0.462880  15 H  s         
    22     -0.330040   1 Si dxx             118      0.282100   8 H  s         
   136      0.282100  11 H  s               154      0.282100  14 H  s         

 Vector   59  Occ=0.000000D+00  E= 5.918675D-01  Symmetry=a1
              MO Center= -5.6D-12,  4.1D-12, -5.3D-12, r^2= 1.6D+01
   Bfn.  Coefficient  Atom+Function         Bfn.  Coefficient  Atom+Function  
  ----- ------------  ---------------      ----- ------------  ---------------
     6      1.599056   1 Si s                37      1.581713   2 C  s         
    56      1.581713   3 C  s                75      1.581713   4 C  s         
    94      1.581713   5 C  s                 5     -0.734952   1 Si s         
    38      0.737067   2 C  px               39      0.737067   2 C  py        
    40      0.737067   2 C  pz               57     -0.737067   3 C  px        

 Vector   60  Occ=0.000000D+00  E= 6.022984D-01  Symmetry=t1
              MO Center=  2.6D-02, -7.9D-01,  6.6D-02, r^2= 1.5D+01
   Bfn.  Coefficient  Atom+Function         Bfn.  Coefficient  Atom+Function  
  ----- ------------  ---------------      ----- ------------  ---------------
   136      1.067606  11 H  s               154     -1.067606  14 H  s         
    58      0.792539   3 C  py               77     -0.792539   4 C  py        
   106      0.793274   6 H  s               124     -0.793274   9 H  s         
   142      0.743036  12 H  s               160     -0.743036  15 H  s         
    40     -0.588888   2 C  pz               59      0.588888   3 C  pz        

 Vector   61  Occ=0.000000D+00  E= 6.022984D-01  Symmetry=t1
              MO Center= -9.9D-01,  5.4D-01,  3.6D-01, r^2= 1.4D+01
   Bfn.  Coefficient  Atom+Function         Bfn.  Coefficient  Atom+Function  
  ----- ------------  ---------------      ----- ------------  ---------------
   130      1.094861  10 H  s               166     -1.094861  16 H  s         
   118     -0.895511   8 H  s               172      0.895511  17 H  s         
    57      0.812772   3 C  px               95     -0.812772   5 C  px        
   106      0.680997   6 H  s               124     -0.680997   9 H  s         
    39      0.664784   2 C  py               96     -0.664784   5 C  py        

 Vector   62  Occ=0.000000D+00  E= 6.022984D-01  Symmetry=t1
              MO Center=  9.7D-01,  2.5D-01, -4.3D-01, r^2= 1.4D+01
   Bfn.  Coefficient  Atom+Function         Bfn.  Coefficient  Atom+Function  
  ----- ------------  ---------------      ----- ------------  ---------------
   112      1.099712   7 H  s               148     -1.099712  13 H  s         
   142      0.876861  12 H  s               160     -0.876861  15 H  s         
    38     -0.816373   2 C  px               76      0.816373   4 C  px        
    78      0.650939   4 C  pz               97     -0.650939   5 C  pz        
   118     -0.582327   8 H  s               172      0.582327  17 H  s         

 Vector   63  Occ=0.000000D+00  E= 6.055802D-01  Symmetry=a1
              MO Center= -5.0D-17, -6.5D-16,  1.6D-16, r^2= 1.6D+01
   Bfn.  Coefficient  Atom+Function         Bfn.  Coefficient  Atom+Function  
  ----- ------------  ---------------      ----- ------------  ---------------
     6      0.909392   1 Si s               105     -0.545626   6 H  s         
   111     -0.545626   7 H  s               117     -0.545626   8 H  s         
   123     -0.545626   9 H  s               129     -0.545626  10 H  s         
   135     -0.545626  11 H  s               141     -0.545626  12 H  s         
   147     -0.545626  13 H  s               153     -0.545626  14 H  s         

 Vector   64  Occ=0.000000D+00  E= 6.065196D-01  Symmetry=t2
              MO Center= -2.9D-01, -1.4D+00,  1.3D-01, r^2= 1.6D+01
   Bfn.  Coefficient  Atom+Function         Bfn.  Coefficient  Atom+Function  
  ----- ------------  ---------------      ----- ------------  ---------------
    56      1.201845   3 C  s                75     -1.058182   4 C  s         
    52     -0.766177   3 C  s                71      0.674592   4 C  s         
   124     -0.676225   9 H  s               142      0.635655  12 H  s         
    94     -0.519580   5 C  s               123      0.507475   9 H  s         
   130     -0.485048  10 H  s               160      0.483558  15 H  s         

 Vector   65  Occ=0.000000D+00  E= 6.065196D-01  Symmetry=t2
              MO Center=  9.0D-01,  5.4D-01,  1.5D+00, r^2= 1.4D+01
   Bfn.  Coefficient  Atom+Function         Bfn.  Coefficient  Atom+Function  
  ----- ------------  ---------------      ----- ------------  ---------------
    37      1.382846   2 C  s                33     -0.881565   2 C  s         
    56     -0.884766   3 C  s               118     -0.692249   8 H  s         
   112     -0.572869   7 H  s                52      0.564039   3 C  s         
   117      0.564974   8 H  s               136      0.551594  11 H  s         
   111      0.538645   7 H  s                75     -0.528635   4 C  s         

 Vector   66  Occ=0.000000D+00  E= 6.065196D-01  Symmetry=t2
              MO Center= -6.1D-01,  8.3D-01, -1.7D+00, r^2= 1.4D+01
   Bfn.  Coefficient  Atom+Function         Bfn.  Coefficient  Atom+Function  
  ----- ------------  ---------------      ----- ------------  ---------------
    94      1.400249   5 C  s                75     -0.912354   4 C  s         
    90     -0.892660   5 C  s               166     -0.680272  16 H  s         
   172     -0.604281  17 H  s                71      0.581626   4 C  s         
   165      0.567522  16 H  s               171      0.550762  17 H  s         
   148      0.542494  13 H  s               159      0.527670  15 H  s         

 Vector   67  Occ=0.000000D+00  E= 6.212191D-01  Symmetry=e
              MO Center= -8.0D-14, -8.6D-13,  2.1D-13, r^2= 1.2D+01
   Bfn.  Coefficient  Atom+Function         Bfn.  Coefficient  Atom+Function  
  ----- ------------  ---------------      ----- ------------  ---------------
   106      0.776233   6 H  s               124      0.776233   9 H  s         
   142      0.776233  12 H  s               160      0.776233  15 H  s         
    40     -0.622115   2 C  pz               59     -0.622115   3 C  pz        
    78      0.622115   4 C  pz               97      0.622115   5 C  pz        
   118     -0.604680   8 H  s               136     -0.604680  11 H  s         

 Vector   68  Occ=0.000000D+00  E= 6.212191D-01  Symmetry=e
              MO Center=  5.4D-15,  8.2D-14,  5.7D-14, r^2= 1.2D+01
   Bfn.  Coefficient  Atom+Function         Bfn.  Coefficient  Atom+Function  
  ----- ------------  ---------------      ----- ------------  ---------------
   112      0.797270   7 H  s               130      0.797270  10 H  s         
   148      0.797270  13 H  s               166      0.797270  16 H  s         
    38     -0.638976   2 C  px               57      0.638976   3 C  px        
    76     -0.638976   4 C  px               95      0.638976   5 C  px        
   118     -0.547204   8 H  s               136     -0.547204  11 H  s         

 Vector   69  Occ=0.000000D+00  E= 6.228650D-01  Symmetry=t2
              MO Center= -1.8D-01,  1.9D-01,  8.2D-02, r^2= 1.4D+01
   Bfn.  Coefficient  Atom+Function         Bfn.  Coefficient  Atom+Function  
  ----- ------------  ---------------      ----- ------------  ---------------
   160      0.993295  15 H  s                75      0.962280   4 C  s         
   112      0.959843   7 H  s               136      0.959009  11 H  s         
    97      0.847162   5 C  pz               38     -0.784407   2 C  px        
    58      0.782843   3 C  py              106     -0.559216   6 H  s         
   124     -0.545883   9 H  s               166     -0.525764  16 H  s         

 Vector   70  Occ=0.000000D+00  E= 6.228650D-01  Symmetry=t2
              MO Center=  7.6D-02, -2.4D-01,  1.3D-01, r^2= 1.4D+01
   Bfn.  Coefficient  Atom+Function         Bfn.  Coefficient  Atom+Function  
  ----- ------------  ---------------      ----- ------------  ---------------
   130      0.983920  10 H  s               142      0.959693  12 H  s         
    94      0.953866   5 C  s               118      0.943072   8 H  s         
    57      0.838461   3 C  px               78      0.793011   4 C  pz        
    39     -0.761830   2 C  py              148     -0.674380  13 H  s         
   124     -0.650153   9 H  s                37     -0.634221   2 C  s         

 Vector   71  Occ=0.000000D+00  E= 6.228650D-01  Symmetry=t2
              MO Center=  1.1D-01,  4.9D-02, -2.1D-01, r^2= 1.4D+01
   Bfn.  Coefficient  Atom+Function         Bfn.  Coefficient  Atom+Function  
  ----- ------------  ---------------      ----- ------------  ---------------
   154      0.939734  14 H  s                56      0.903627   3 C  s         
   166      0.904833  16 H  s               106      0.890080   6 H  s         
    77      0.808625   4 C  py               95      0.743151   5 C  px        
    40     -0.715474   2 C  pz              172     -0.699602  17 H  s         
   148     -0.664701  13 H  s                37     -0.655655   2 C  s         

 Vector   72  Occ=0.000000D+00  E= 6.843292D-01  Symmetry=t2
              MO Center= -4.0D-02,  2.6D-02, -6.0D-01, r^2= 7.3D+00
   Bfn.  Coefficient  Atom+Function         Bfn.  Coefficient  Atom+Function  
  ----- ------------  ---------------      ----- ------------  ---------------
    24      1.086320   1 Si dxz              97     -0.889144   5 C  pz        
    78      0.874153   4 C  pz               94      0.790474   5 C  s         
    75     -0.750081   4 C  s                26     -0.711522   1 Si dyz       
    95     -0.668978   5 C  px               20      0.651917   1 Si py        
    76     -0.622746   4 C  px               96      0.544777   5 C  py        

 Vector   73  Occ=0.000000D+00  E= 6.843292D-01  Symmetry=t2
              MO Center=  2.0D-01,  2.2D-01,  3.4D-02, r^2= 7.6D+00
   Bfn.  Coefficient  Atom+Function         Bfn.  Coefficient  Atom+Function  
  ----- ------------  ---------------      ----- ------------  ---------------
    23      1.264880   1 Si dxy              21      0.759074   1 Si pz        
    39      0.760374   2 C  py               38      0.753302   2 C  px        
    37      0.722112   2 C  s                96     -0.696897   5 C  py        
    76     -0.683038   4 C  px               95      0.557537   5 C  px        
    94     -0.551076   5 C  s                77      0.543678   4 C  py        

 Vector   74  Occ=0.000000D+00  E= 6.843292D-01  Symmetry=t2
              MO Center= -1.6D-01, -2.4D-01,  5.7D-01, r^2= 7.3D+00
   Bfn.  Coefficient  Atom+Function         Bfn.  Coefficient  Atom+Function  
  ----- ------------  ---------------      ----- ------------  ---------------
    26      1.064658   1 Si dyz              59     -0.904560   3 C  pz        
    56     -0.875413   3 C  s                40      0.811064   2 C  pz        
    58      0.775128   3 C  py               24      0.684577   1 Si dxz       
    57      0.649176   3 C  px               19      0.638918   1 Si px        
    37      0.623491   2 C  s                77     -0.557419   4 C  py        

 Vector   75  Occ=0.000000D+00  E= 7.504565D-01  Symmetry=a1
              MO Center=  1.7D-11,  4.6D-12,  1.7D-11, r^2= 1.4D+01
   Bfn.  Coefficient  Atom+Function         Bfn.  Coefficient  Atom+Function  
  ----- ------------  ---------------      ----- ------------  ---------------
    37      3.056186   2 C  s                56      3.056186   3 C  s         
    75      3.056186   4 C  s                94      3.056186   5 C  s         
   105     -0.835901   6 H  s               111     -0.835901   7 H  s         
   117     -0.835901   8 H  s               123     -0.835901   9 H  s         
   129     -0.835901  10 H  s               135     -0.835901  11 H  s         

 Vector   76  Occ=0.000000D+00  E= 7.514253D-01  Symmetry=t2
              MO Center=  1.7D+00,  8.4D-01,  5.9D-01, r^2= 1.2D+01
   Bfn.  Coefficient  Atom+Function         Bfn.  Coefficient  Atom+Function  
  ----- ------------  ---------------      ----- ------------  ---------------
    37      5.144381   2 C  s                75     -3.375868   4 C  s         
    94     -1.616529   5 C  s               105     -1.415487   6 H  s         
   111     -1.406041   7 H  s               117     -1.411196   8 H  s         
    40      1.062150   2 C  pz               33     -1.056319   2 C  s         
    39      1.016766   2 C  py               38      0.962247   2 C  px        

 Vector   77  Occ=0.000000D+00  E= 7.514253D-01  Symmetry=t2
              MO Center= -1.3D-01,  2.1D-01, -1.7D+00, r^2= 1.3D+01
   Bfn.  Coefficient  Atom+Function         Bfn.  Coefficient  Atom+Function  
  ----- ------------  ---------------      ----- ------------  ---------------
    94     -4.569072   5 C  s                75      4.157356   4 C  s         
    37      1.267137   2 C  s               165      1.260092  16 H  s         
   171      1.253873  17 H  s               159      1.245404  15 H  s         
   147     -1.147978  13 H  s               153     -1.141759  14 H  s         
   141     -1.130878  12 H  s                95      0.974059   5 C  px        

 Vector   78  Occ=0.000000D+00  E= 7.514253D-01  Symmetry=t2
              MO Center= -1.5D+00, -1.1D+00,  1.1D+00, r^2= 1.1D+01
   Bfn.  Coefficient  Atom+Function         Bfn.  Coefficient  Atom+Function  
  ----- ------------  ---------------      ----- ------------  ---------------
    56      5.442261   3 C  s                94     -2.623636   5 C  s         
    37     -1.517486   2 C  s               123     -1.493475   9 H  s         
   129     -1.490234  10 H  s               135     -1.494109  11 H  s         
    75     -1.301139   4 C  s                52     -1.117484   3 C  s         
    58     -1.088315   3 C  py               59      1.081611   3 C  pz        

 Vector   79  Occ=0.000000D+00  E= 9.763318D-01  Symmetry=t2
              MO Center=  6.7D-03,  1.9D-02,  2.1D-01, r^2= 1.1D+01
   Bfn.  Coefficient  Atom+Function         Bfn.  Coefficient  Atom+Function  
  ----- ------------  ---------------      ----- ------------  ---------------
    37      0.893991   2 C  s                16     -0.874433   1 Si px        
    13      0.866879   1 Si px               56     -0.851834   3 C  s         
    94     -0.440943   5 C  s                19      0.413734   1 Si px        
    75      0.398786   4 C  s               111     -0.333969   7 H  s         
    61      0.326487   3 C  dxy              42     -0.324712   2 C  dxy       

 Vector   80  Occ=0.000000D+00  E= 9.763318D-01  Symmetry=t2
              MO Center=  1.5D-01, -5.5D-02, -2.0D-01, r^2= 1.1D+01
   Bfn.  Coefficient  Atom+Function         Bfn.  Coefficient  Atom+Function  
  ----- ------------  ---------------      ----- ------------  ---------------
    75      1.022721   4 C  s                17      0.843359   1 Si py        
    14     -0.836074   1 Si py               94     -0.672485   5 C  s         
    37     -0.574352   2 C  s                20     -0.399031   1 Si py        
   153     -0.374572  14 H  s               147     -0.348814  13 H  s         
   141     -0.345649  12 H  s                99     -0.323534   5 C  dxy       

 Vector   81  Occ=0.000000D+00  E= 9.763318D-01  Symmetry=t2
              MO Center= -1.6D-01,  3.6D-02, -9.3D-03, r^2= 1.1D+01
   Bfn.  Coefficient  Atom+Function         Bfn.  Coefficient  Atom+Function  
  ----- ------------  ---------------      ----- ------------  ---------------
    18     -0.895778   1 Si pz               15      0.888040   1 Si pz        
    94     -0.872960   5 C  s                56      0.795536   3 C  s         
    37      0.528798   2 C  s                75     -0.451373   4 C  s         
    21      0.423833   1 Si pz              159      0.328112  15 H  s         
    64      0.312808   3 C  dyz             102     -0.309547   5 C  dyz       

 Vector   82  Occ=0.000000D+00  E= 9.868051D-01  Symmetry=e
              MO Center= -2.9D-14, -2.0D-13, -2.2D-13, r^2= 1.4D+01
   Bfn.  Coefficient  Atom+Function         Bfn.  Coefficient  Atom+Function  
  ----- ------------  ---------------      ----- ------------  ---------------
    42      0.304474   2 C  dxy              61      0.304474   3 C  dxy       
    80     -0.304474   4 C  dxy              99     -0.304474   5 C  dxy       
    43     -0.251598   2 C  dxz              62      0.251598   3 C  dxz       
    81      0.251598   4 C  dxz             100     -0.251598   5 C  dxz       
   119      0.174588   8 H  px              137     -0.174588  11 H  px        

 Vector   83  Occ=0.000000D+00  E= 9.868051D-01  Symmetry=e
              MO Center=  5.0D-16,  1.9D-15, -2.6D-15, r^2= 1.4D+01
   Bfn.  Coefficient  Atom+Function         Bfn.  Coefficient  Atom+Function  
  ----- ------------  ---------------      ----- ------------  ---------------
    45      0.321048   2 C  dyz              64     -0.321048   3 C  dyz       
    83      0.321048   4 C  dyz             102     -0.321048   5 C  dyz       
    43     -0.206317   2 C  dxz              62      0.206317   3 C  dxz       
    81      0.206317   4 C  dxz             100     -0.206317   5 C  dxz       
   108      0.182638   6 H  py              121      0.183522   8 H  pz        

 Vector   84  Occ=0.000000D+00  E= 9.869987D-01  Symmetry=t1
              MO Center=  1.7D-02,  6.8D-01, -4.0D-02, r^2= 1.4D+01
   Bfn.  Coefficient  Atom+Function         Bfn.  Coefficient  Atom+Function  
  ----- ------------  ---------------      ----- ------------  ---------------
    43      0.368069   2 C  dxz             100     -0.368069   5 C  dxz       
    80      0.267052   4 C  dxy              99     -0.267052   5 C  dxy       
    42     -0.254351   2 C  dxy              61      0.254351   3 C  dxy       
   107      0.210389   6 H  px              161      0.210524  15 H  px        
   115      0.208885   7 H  pz              169      0.208749  16 H  pz        

 Vector   85  Occ=0.000000D+00  E= 9.869987D-01  Symmetry=t1
              MO Center= -8.8D-01, -4.0D-01, -3.4D-01, r^2= 1.3D+01
   Bfn.  Coefficient  Atom+Function         Bfn.  Coefficient  Atom+Function  
  ----- ------------  ---------------      ----- ------------  ---------------
    64      0.380916   3 C  dyz             102     -0.380916   5 C  dyz       
    62     -0.286677   3 C  dxz              81      0.286677   4 C  dxz       
    80     -0.255455   4 C  dxy              99      0.255455   5 C  dxy       
   139     -0.217982  11 H  pz              162      0.217649  15 H  py        
   126      0.215924   9 H  py              175     -0.216258  17 H  pz        

 Vector   86  Occ=0.000000D+00  E= 9.869987D-01  Symmetry=t1
              MO Center=  8.6D-01, -2.8D-01,  3.8D-01, r^2= 1.3D+01
   Bfn.  Coefficient  Atom+Function         Bfn.  Coefficient  Atom+Function  
  ----- ------------  ---------------      ----- ------------  ---------------
    45      0.380999   2 C  dyz              83     -0.380999   4 C  dyz       
    42     -0.292389   2 C  dxy              61      0.292389   3 C  dxy       
    62      0.231023   3 C  dxz              81     -0.231023   4 C  dxz       
   108      0.218091   6 H  py              157      0.217434  14 H  pz        
   121      0.215911   8 H  pz              144      0.216568  12 H  py        

 Vector   87  Occ=0.000000D+00  E= 1.009365D+00  Symmetry=t2
              MO Center=  5.1D-02, -1.2D-01,  1.3D-01, r^2= 1.2D+01
   Bfn.  Coefficient  Atom+Function         Bfn.  Coefficient  Atom+Function  
  ----- ------------  ---------------      ----- ------------  ---------------
    16      0.695126   1 Si px               94      0.673294   5 C  s         
    19     -0.570959   1 Si px               13     -0.566233   1 Si px        
    75     -0.379074   4 C  s                97     -0.362921   5 C  pz        
    37     -0.359256   2 C  s                96      0.358366   5 C  py        
    64      0.344489   3 C  dyz              45      0.342225   2 C  dyz       

 Vector   88  Occ=0.000000D+00  E= 1.009365D+00  Symmetry=t2
              MO Center=  1.1D-01,  6.4D-02, -1.6D-01, r^2= 1.2D+01
   Bfn.  Coefficient  Atom+Function         Bfn.  Coefficient  Atom+Function  
  ----- ------------  ---------------      ----- ------------  ---------------
    56      0.694758   3 C  s                17      0.652521   1 Si py        
    20     -0.535965   1 Si py               14     -0.531528   1 Si py        
    37     -0.407558   2 C  s                16      0.385290   1 Si px        
    59      0.378260   3 C  pz               57     -0.350210   3 C  px        
    40     -0.326634   2 C  pz               81      0.323858   4 C  dxz       

 Vector   89  Occ=0.000000D+00  E= 1.009365D+00  Symmetry=t2
              MO Center= -1.6D-01,  5.5D-02,  2.8D-02, r^2= 1.2D+01
   Bfn.  Coefficient  Atom+Function         Bfn.  Coefficient  Atom+Function  
  ----- ------------  ---------------      ----- ------------  ---------------
    18      0.705338   1 Si pz               75      0.635639   4 C  s         
    21     -0.579347   1 Si pz               15     -0.574552   1 Si pz        
    37     -0.502563   2 C  s                76      0.375882   4 C  px        
    17      0.366260   1 Si py               38     -0.351961   2 C  px        
    61      0.348160   3 C  dxy              99      0.349184   5 C  dxy       

 Vector   90  Occ=0.000000D+00  E= 1.103715D+00  Symmetry=a1
              MO Center= -3.3D-14,  1.8D-14, -6.6D-14, r^2= 1.3D+01
   Bfn.  Coefficient  Atom+Function         Bfn.  Coefficient  Atom+Function  
  ----- ------------  ---------------      ----- ------------  ---------------
     6      1.063038   1 Si s                37      1.014926   2 C  s         
    56      1.014926   3 C  s                75      1.014926   4 C  s         
    94      1.014926   5 C  s                 5     -0.881863   1 Si s         
    38      0.477267   2 C  px               39      0.477267   2 C  py        
    40      0.477267   2 C  pz               57     -0.477267   3 C  px        

 Vector   91  Occ=0.000000D+00  E= 1.180704D+00  Symmetry=t2
              MO Center= -4.4D-02,  6.7D-01, -5.4D-02, r^2= 6.1D+00
   Bfn.  Coefficient  Atom+Function         Bfn.  Coefficient  Atom+Function  
  ----- ------------  ---------------      ----- ------------  ---------------
    16      1.383352   1 Si px               13     -1.208407   1 Si px        
    94     -1.130282   5 C  s                18      1.115324   1 Si pz        
    37      1.051871   2 C  s                15     -0.974275   1 Si pz        
    19     -0.490508   1 Si px              165      0.438627  16 H  s         
   159      0.436129  15 H  s                96     -0.433389   5 C  py        

 Vector   92  Occ=0.000000D+00  E= 1.180704D+00  Symmetry=t2
              MO Center= -2.7D-01, -6.3D-01,  2.3D-01, r^2= 6.0D+00
   Bfn.  Coefficient  Atom+Function         Bfn.  Coefficient  Atom+Function  
  ----- ------------  ---------------      ----- ------------  ---------------
    18      1.319359   1 Si pz               56      1.262024   3 C  s         
    15     -1.152506   1 Si pz               16     -1.094635   1 Si px        
    13      0.956203   1 Si px               75     -0.846173   4 C  s         
   123     -0.487653   9 H  s               129     -0.485558  10 H  s         
    58     -0.481776   3 C  py              135     -0.479793  11 H  s         

 Vector   93  Occ=0.000000D+00  E= 1.180704D+00  Symmetry=t2
              MO Center=  3.2D-01, -4.3D-02, -1.7D-01, r^2= 6.4D+00
   Bfn.  Coefficient  Atom+Function         Bfn.  Coefficient  Atom+Function  
  ----- ------------  ---------------      ----- ------------  ---------------
    17      1.711979   1 Si py               14     -1.495474   1 Si py        
    75     -1.034605   4 C  s                37      0.832070   2 C  s         
    94      0.663041   5 C  s                20     -0.607032   1 Si py        
    56     -0.460506   3 C  s                18      0.425460   1 Si pz        
   153      0.405653  14 H  s                76     -0.395856   4 C  px        

 Vector   94  Occ=0.000000D+00  E= 1.525029D+00  Symmetry=e
              MO Center= -4.7D-16, -1.5D-15, -6.5D-16, r^2= 1.4D+01
   Bfn.  Coefficient  Atom+Function         Bfn.  Coefficient  Atom+Function  
  ----- ------------  ---------------      ----- ------------  ---------------
   117      0.659798   8 H  s               135      0.659798  11 H  s         
   153      0.659798  14 H  s               171      0.659798  17 H  s         
    44     -0.474276   2 C  dyy              63     -0.474276   3 C  dyy       
    82     -0.474276   4 C  dyy             101     -0.474276   5 C  dyy       
   105     -0.450469   6 H  s               123     -0.450469   9 H  s         

 Vector   95  Occ=0.000000D+00  E= 1.525029D+00  Symmetry=e
              MO Center=  1.2D-15, -2.6D-16,  8.4D-18, r^2= 1.4D+01
   Bfn.  Coefficient  Atom+Function         Bfn.  Coefficient  Atom+Function  
  ----- ------------  ---------------      ----- ------------  ---------------
   111      0.641013   7 H  s               129      0.641013  10 H  s         
   147      0.641013  13 H  s               165      0.641013  16 H  s         
   105     -0.501790   6 H  s               123     -0.501790   9 H  s         
   141     -0.501790  12 H  s               159     -0.501790  15 H  s         
    41     -0.460773   2 C  dxx              60     -0.460773   3 C  dxx       

 Vector   96  Occ=0.000000D+00  E= 1.538391D+00  Symmetry=t1
              MO Center= -3.4D-01, -7.2D-01, -7.6D-01, r^2= 1.3D+01
   Bfn.  Coefficient  Atom+Function         Bfn.  Coefficient  Atom+Function  
  ----- ------------  ---------------      ----- ------------  ---------------
   141      0.700272  12 H  s               159     -0.700272  15 H  s         
   135      0.687690  11 H  s               153     -0.687690  14 H  s         
    84     -0.511679   4 C  dzz             103      0.511679   5 C  dzz       
    63     -0.502486   3 C  dyy              82      0.502486   4 C  dyy       
   129     -0.438148  10 H  s               165      0.438148  16 H  s         

 Vector   97  Occ=0.000000D+00  E= 1.538391D+00  Symmetry=t1
              MO Center=  3.2D-01,  7.3D-01, -1.2D-01, r^2= 1.3D+01
   Bfn.  Coefficient  Atom+Function         Bfn.  Coefficient  Atom+Function  
  ----- ------------  ---------------      ----- ------------  ---------------
   117      0.720841   8 H  s               171     -0.720841  17 H  s         
   111     -0.610539   7 H  s               147      0.610539  13 H  s         
    44     -0.526709   2 C  dyy             101      0.526709   5 C  dyy       
    41      0.446113   2 C  dxx              79     -0.446113   4 C  dxx       
   129     -0.440716  10 H  s               165      0.440716  16 H  s         

 Vector   98  Occ=0.000000D+00  E= 1.538391D+00  Symmetry=t1
              MO Center=  2.4D-02, -1.1D-02,  8.8D-01, r^2= 1.3D+01
   Bfn.  Coefficient  Atom+Function         Bfn.  Coefficient  Atom+Function  
  ----- ------------  ---------------      ----- ------------  ---------------
   105      0.754167   6 H  s               123     -0.754167   9 H  s         
    46     -0.551059   2 C  dzz              65      0.551059   3 C  dzz       
   111     -0.519893   7 H  s               147      0.519893  13 H  s         
   129      0.506953  10 H  s               165     -0.506953  16 H  s         
    41      0.379879   2 C  dxx              79     -0.379879   4 C  dxx       

 Vector   99  Occ=0.000000D+00  E= 1.548839D+00  Symmetry=t2
              MO Center= -8.1D-01,  6.7D-02,  4.4D-02, r^2= 1.3D+01
   Bfn.  Coefficient  Atom+Function         Bfn.  Coefficient  Atom+Function  
  ----- ------------  ---------------      ----- ------------  ---------------
   159     -0.698402  15 H  s               123      0.670451   9 H  s         
   135     -0.607468  11 H  s               171      0.579517  17 H  s         
   103      0.522759   5 C  dzz              65     -0.501675   3 C  dzz       
    63      0.455592   3 C  dyy             111     -0.454112   7 H  s         
   101     -0.434509   5 C  dyy             147      0.398252  13 H  s         

 Vector  100  Occ=0.000000D+00  E= 1.548839D+00  Symmetry=t2
              MO Center=  5.4D-01,  4.2D-01, -7.0D-01, r^2= 1.3D+01
   Bfn.  Coefficient  Atom+Function         Bfn.  Coefficient  Atom+Function  
  ----- ------------  ---------------      ----- ------------  ---------------
   153      0.743032  14 H  s               165      0.694038  16 H  s         
   105      0.656554   6 H  s                82     -0.557031   4 C  dyy       
    98     -0.520843   5 C  dxx              46     -0.493156   2 C  dzz       
   171     -0.476729  17 H  s               147     -0.427736  13 H  s         
   117     -0.401650   8 H  s               101      0.356159   5 C  dyy       

 Vector  101  Occ=0.000000D+00  E= 1.548839D+00  Symmetry=t2
              MO Center=  2.6D-01, -4.9D-01,  6.5D-01, r^2= 1.3D+01
   Bfn.  Coefficient  Atom+Function         Bfn.  Coefficient  Atom+Function  
  ----- ------------  ---------------      ----- ------------  ---------------
   129      0.752502  10 H  s               117      0.633185   8 H  s         
   141      0.598833  12 H  s                60     -0.563599   3 C  dxx       
   111     -0.547160   7 H  s               147     -0.478354  13 H  s         
    44     -0.475468   2 C  dyy              84     -0.450094   4 C  dzz       
   135     -0.427842  11 H  s                41      0.408709   2 C  dxx       

 Vector  102  Occ=0.000000D+00  E= 1.628572D+00  Symmetry=a2
              MO Center=  3.1D-16, -4.0D-16,  1.7D-16, r^2= 1.6D+01
   Bfn.  Coefficient  Atom+Function         Bfn.  Coefficient  Atom+Function  
  ----- ------------  ---------------      ----- ------------  ---------------
   107      0.224536   6 H  px              108     -0.224536   6 H  py        
   114      0.224536   7 H  py              115     -0.224536   7 H  pz        
   119     -0.224536   8 H  px              121      0.224536   8 H  pz        
   125     -0.224536   9 H  px              126      0.224536   9 H  py        
   132     -0.224536  10 H  py              133     -0.224536  10 H  pz        

 Vector  103  Occ=0.000000D+00  E= 1.628572D+00  Symmetry=t1
              MO Center= -8.5D-01,  7.8D-01, -1.6D-01, r^2= 1.5D+01
   Bfn.  Coefficient  Atom+Function         Bfn.  Coefficient  Atom+Function  
  ----- ------------  ---------------      ----- ------------  ---------------
   161      0.300878  15 H  px              162      0.300879  15 H  py        
   168     -0.300853  16 H  py              169     -0.300878  16 H  pz        
   173     -0.300853  17 H  px              175      0.300878  17 H  pz        
   125     -0.220227   9 H  px              126      0.220239   9 H  py        
   132     -0.220202  10 H  py              133     -0.220226  10 H  pz        

 Vector  104  Occ=0.000000D+00  E= 1.628572D+00  Symmetry=t1
              MO Center=  8.9D-01, -9.8D-03, -4.8D-02, r^2= 1.6D+01
   Bfn.  Coefficient  Atom+Function         Bfn.  Coefficient  Atom+Function  
  ----- ------------  ---------------      ----- ------------  ---------------
   143     -0.267604  12 H  px              144     -0.267635  12 H  py        
   150      0.267629  13 H  py              151     -0.267604  13 H  pz        
   155      0.267629  14 H  px              157      0.267635  14 H  pz        
   107      0.262725   6 H  px              108     -0.262756   6 H  py        
   114      0.262750   7 H  py              115     -0.262725   7 H  pz        

 Vector  105  Occ=0.000000D+00  E= 1.628572D+00  Symmetry=t1
              MO Center= -3.6D-02, -7.7D-01,  2.1D-01, r^2= 1.6D+01
   Bfn.  Coefficient  Atom+Function         Bfn.  Coefficient  Atom+Function  
  ----- ------------  ---------------      ----- ------------  ---------------
   125      0.270379   9 H  px              126     -0.270349   9 H  py        
   132      0.270376  10 H  py              133      0.270380  10 H  pz        
   137     -0.270375  11 H  px              139     -0.270349  11 H  pz        
   143      0.249418  12 H  px              144      0.249385  12 H  py        
   150     -0.249411  13 H  py              151      0.249418  13 H  pz        

 Vector  106  Occ=0.000000D+00  E= 1.677822D+00  Symmetry=e
              MO Center= -8.2D-13,  2.7D-13,  3.8D-13, r^2= 1.6D+01
   Bfn.  Coefficient  Atom+Function         Bfn.  Coefficient  Atom+Function  
  ----- ------------  ---------------      ----- ------------  ---------------
   105      0.327992   6 H  s               123      0.327992   9 H  s         
   141      0.327992  12 H  s               159      0.327992  15 H  s         
   108     -0.295493   6 H  py              126      0.295493   9 H  py        
   144      0.295493  12 H  py              162     -0.295493  15 H  py        
   121      0.281875   8 H  pz              139      0.281875  11 H  pz        

 Vector  107  Occ=0.000000D+00  E= 1.677822D+00  Symmetry=e
              MO Center=  1.4D-13, -3.2D-13, -6.3D-13, r^2= 1.6D+01
   Bfn.  Coefficient  Atom+Function         Bfn.  Coefficient  Atom+Function  
  ----- ------------  ---------------      ----- ------------  ---------------
   114     -0.321057   7 H  py              132      0.321057  10 H  py        
   150      0.321057  13 H  py              168     -0.321057  16 H  py        
   119      0.318793   8 H  px              137     -0.318793  11 H  px        
   155      0.318793  14 H  px              173     -0.318793  17 H  px        
   111      0.295964   7 H  s               129      0.295964  10 H  s         

 Vector  108  Occ=0.000000D+00  E= 1.682811D+00  Symmetry=t1
              MO Center= -6.0D-01,  3.5D-01,  1.0D+00, r^2= 1.4D+01
   Bfn.  Coefficient  Atom+Function         Bfn.  Coefficient  Atom+Function  
  ----- ------------  ---------------      ----- ------------  ---------------
   105      0.410670   6 H  s               123     -0.410670   9 H  s         
   125     -0.390846   9 H  px              133     -0.384559  10 H  pz        
   129      0.346635  10 H  s               165     -0.346635  16 H  s         
   108     -0.340349   6 H  py              121      0.323354   8 H  pz        
   107     -0.310535   6 H  px              168      0.304417  16 H  py        

 Vector  109  Occ=0.000000D+00  E= 1.682811D+00  Symmetry=t1
              MO Center=  9.9D-01,  8.0D-01, -5.0D-01, r^2= 1.4D+01
   Bfn.  Coefficient  Atom+Function         Bfn.  Coefficient  Atom+Function  
  ----- ------------  ---------------      ----- ------------  ---------------
   111      0.396543   7 H  s               147     -0.396543  13 H  s         
   114     -0.392095   7 H  py              119      0.389142   8 H  px        
   117     -0.366465   8 H  s               171      0.366465  17 H  s         
   151     -0.349735  13 H  pz              143     -0.337799  12 H  px        
   175      0.332857  17 H  pz              162      0.323874  15 H  py        

 Vector  110  Occ=0.000000D+00  E= 1.682811D+00  Symmetry=t1
              MO Center= -3.9D-01, -1.1D+00, -5.5D-01, r^2= 1.4D+01
   Bfn.  Coefficient  Atom+Function         Bfn.  Coefficient  Atom+Function  
  ----- ------------  ---------------      ----- ------------  ---------------
   135      0.420382  11 H  s               153     -0.420382  14 H  s         
   157     -0.388031  14 H  pz              144      0.379039  12 H  py        
   137      0.355717  11 H  px              132     -0.339873  10 H  py        
   141      0.328786  12 H  s               159     -0.328786  15 H  s         
   139     -0.310559  11 H  pz              161     -0.304321  15 H  px        

 Vector  111  Occ=0.000000D+00  E= 1.714343D+00  Symmetry=t2
              MO Center= -5.0D-01, -6.6D-01, -5.0D-01, r^2= 1.5D+01
   Bfn.  Coefficient  Atom+Function         Bfn.  Coefficient  Atom+Function  
  ----- ------------  ---------------      ----- ------------  ---------------
   123      0.524180   9 H  s               147      0.524430  13 H  s         
   171      0.493642  17 H  s                59     -0.352358   3 C  pz        
    76     -0.352413   4 C  px              125      0.353691   9 H  px        
   151      0.353711  13 H  pz               96     -0.345616   5 C  py        
   133      0.326837  10 H  pz              143      0.326817  12 H  px        

 Vector  112  Occ=0.000000D+00  E= 1.714343D+00  Symmetry=t2
              MO Center=  1.9D-01, -1.2D-01,  7.3D-01, r^2= 1.5D+01
   Bfn.  Coefficient  Atom+Function         Bfn.  Coefficient  Atom+Function  
  ----- ------------  ---------------      ----- ------------  ---------------
   117      0.519506   8 H  s               135     -0.457390  11 H  s         
   129      0.449697  10 H  s               111     -0.387580   7 H  s         
   119     -0.378222   8 H  px              132      0.372811  10 H  py        
   137     -0.370572  11 H  px              141      0.371860  12 H  s         
   114      0.365161   7 H  py               20      0.326431   1 Si py        

 Vector  113  Occ=0.000000D+00  E= 1.714343D+00  Symmetry=t2
              MO Center=  3.1D-01,  7.7D-01, -2.3D-01, r^2= 1.5D+01
   Bfn.  Coefficient  Atom+Function         Bfn.  Coefficient  Atom+Function  
  ----- ------------  ---------------      ----- ------------  ---------------
   105      0.526976   6 H  s               165      0.489847  16 H  s         
   159     -0.419384  15 H  s               153      0.415783  14 H  s         
   107     -0.380634   6 H  px              111     -0.382255   7 H  s         
   169      0.377756  16 H  pz              161     -0.367384  15 H  px        
   115      0.364506   7 H  pz               40     -0.336152   2 C  pz        

 Vector  114  Occ=0.000000D+00  E= 1.983033D+00  Symmetry=e
              MO Center=  4.0D-12, -8.8D-14,  6.5D-13, r^2= 1.3D+01
   Bfn.  Coefficient  Atom+Function         Bfn.  Coefficient  Atom+Function  
  ----- ------------  ---------------      ----- ------------  ---------------
    42      0.732953   2 C  dxy              61      0.732953   3 C  dxy       
    80     -0.732953   4 C  dxy              99     -0.732953   5 C  dxy       
    45     -0.581777   2 C  dyz              64      0.581777   3 C  dyz       
    83     -0.581777   4 C  dyz             102      0.581777   5 C  dyz       
   105      0.265643   6 H  s               119     -0.266516   8 H  px        

 Vector  115  Occ=0.000000D+00  E= 1.983033D+00  Symmetry=e
              MO Center= -1.1D-12,  2.4D-13,  5.5D-12, r^2= 1.3D+01
   Bfn.  Coefficient  Atom+Function         Bfn.  Coefficient  Atom+Function  
  ----- ------------  ---------------      ----- ------------  ---------------
    43      0.759060   2 C  dxz              62     -0.759060   3 C  dxz       
    81     -0.759060   4 C  dxz             100      0.759060   5 C  dxz       
    45     -0.510451   2 C  dyz              64      0.510451   3 C  dyz       
    83     -0.510451   4 C  dyz             102      0.510451   5 C  dyz       
   117      0.275105   8 H  s               135      0.275105  11 H  s         

 Vector  116  Occ=0.000000D+00  E= 1.985377D+00  Symmetry=t1
              MO Center= -2.4D-01,  4.3D-02,  3.2D-01, r^2= 1.3D+01
   Bfn.  Coefficient  Atom+Function         Bfn.  Coefficient  Atom+Function  
  ----- ------------  ---------------      ----- ------------  ---------------
    42      0.772156   2 C  dxy              61     -0.772156   3 C  dxy       
    64     -0.742109   3 C  dyz             102      0.742109   5 C  dyz       
    45     -0.566178   2 C  dyz              83      0.566178   4 C  dyz       
    80      0.536131   4 C  dxy              99     -0.536131   5 C  dxy       
   137     -0.287561  11 H  px              105      0.285686   6 H  s         

 Vector  117  Occ=0.000000D+00  E= 1.985377D+00  Symmetry=t1
              MO Center=  2.9D-01,  8.8D-01, -2.6D-01, r^2= 1.2D+01
   Bfn.  Coefficient  Atom+Function         Bfn.  Coefficient  Atom+Function  
  ----- ------------  ---------------      ----- ------------  ---------------
    43      0.924686   2 C  dxz             100     -0.924686   5 C  dxz       
    45     -0.631052   2 C  dyz              83      0.631052   4 C  dyz       
    80      0.582574   4 C  dxy              99     -0.582574   5 C  dxy       
    64      0.342112   3 C  dyz             102     -0.342112   5 C  dyz       
   117      0.342120   8 H  s               171     -0.342120  17 H  s         

 Vector  118  Occ=0.000000D+00  E= 1.985377D+00  Symmetry=t1
              MO Center= -5.3D-02, -9.3D-01, -5.8D-02, r^2= 1.3D+01
   Bfn.  Coefficient  Atom+Function         Bfn.  Coefficient  Atom+Function  
  ----- ------------  ---------------      ----- ------------  ---------------
    62      0.946512   3 C  dxz              81     -0.946512   4 C  dxz       
    80      0.521832   4 C  dxy              99     -0.521832   5 C  dxy       
    64     -0.481011   3 C  dyz             102      0.481011   5 C  dyz       
    42     -0.465501   2 C  dxy              61      0.465501   3 C  dxy       
    45      0.424679   2 C  dyz              83     -0.424679   4 C  dyz       

 Vector  119  Occ=0.000000D+00  E= 1.992054D+00  Symmetry=t2
              MO Center=  5.2D-02, -1.2D-01,  8.1D-01, r^2= 1.3D+01
   Bfn.  Coefficient  Atom+Function         Bfn.  Coefficient  Atom+Function  
  ----- ------------  ---------------      ----- ------------  ---------------
    64      0.865544   3 C  dyz              45      0.817756   2 C  dyz       
    43     -0.701064   2 C  dxz              62     -0.653276   3 C  dxz       
    80      0.584790   4 C  dxy              83      0.528468   4 C  dyz       
    99     -0.498587   5 C  dxy             102      0.480680   5 C  dyz       
   129     -0.363889  10 H  s               111      0.344636   7 H  s         

 Vector  120  Occ=0.000000D+00  E= 1.992054D+00  Symmetry=t2
              MO Center=  1.5D-01,  2.0D-01, -1.4D-02, r^2= 1.3D+01
   Bfn.  Coefficient  Atom+Function         Bfn.  Coefficient  Atom+Function  
  ----- ------------  ---------------      ----- ------------  ---------------
    42      0.801963   2 C  dxy              99      0.745270   5 C  dxy       
    80      0.724194   4 C  dxy              61      0.667501   3 C  dxy       
   102     -0.505799   5 C  dyz              81     -0.497328   4 C  dxz       
    45     -0.449106   2 C  dyz              43     -0.419559   2 C  dxz       
    62      0.395061   3 C  dxz              64      0.365514   3 C  dyz       

 Vector  121  Occ=0.000000D+00  E= 1.992054D+00  Symmetry=t2
              MO Center= -2.0D-01, -8.9D-02, -8.0D-01, r^2= 1.3D+01
   Bfn.  Coefficient  Atom+Function         Bfn.  Coefficient  Atom+Function  
  ----- ------------  ---------------      ----- ------------  ---------------
   100      0.880041   5 C  dxz              81      0.796504   4 C  dxz       
    83      0.713548   4 C  dyz             102      0.630011   5 C  dyz       
    61      0.613906   3 C  dxy              62      0.548595   3 C  dxz       
    42     -0.463217   2 C  dxy              43      0.465058   2 C  dxz       
   171      0.369716  17 H  s               153     -0.336062  14 H  s         

 Vector  122  Occ=0.000000D+00  E= 2.202796D+00  Symmetry=t2
              MO Center= -4.5D-01, -3.4D-01,  1.8D+00, r^2= 9.7D+00
   Bfn.  Coefficient  Atom+Function         Bfn.  Coefficient  Atom+Function  
  ----- ------------  ---------------      ----- ------------  ---------------
    56      0.932305   3 C  s                62     -0.796620   3 C  dxz       
    64     -0.786203   3 C  dyz              61      0.762727   3 C  dxy       
    37     -0.753546   2 C  s                43     -0.651856   2 C  dxz       
    45     -0.641439   2 C  dyz              42     -0.602523   2 C  dxy       
    59      0.532098   3 C  pz               57     -0.490433   3 C  px        

 Vector  123  Occ=0.000000D+00  E= 2.202796D+00  Symmetry=t2
              MO Center= -7.6D-01,  1.7D+00, -4.9D-01, r^2= 9.8D+00
   Bfn.  Coefficient  Atom+Function         Bfn.  Coefficient  Atom+Function  
  ----- ------------  ---------------      ----- ------------  ---------------
    94      0.963754   5 C  s                99     -0.823366   5 C  dxy       
   102     -0.808087   5 C  dyz             100      0.793218   5 C  dxz       
    37     -0.668704   2 C  s                42     -0.584426   2 C  dxy       
    45     -0.569148   2 C  dyz              96      0.541596   5 C  py        
    43     -0.528793   2 C  dxz              95     -0.515204   5 C  px        

 Vector  124  Occ=0.000000D+00  E= 2.202796D+00  Symmetry=t2
              MO Center=  1.2D+00, -1.3D+00, -1.3D+00, r^2= 8.4D+00
   Bfn.  Coefficient  Atom+Function         Bfn.  Coefficient  Atom+Function  
  ----- ------------  ---------------      ----- ------------  ---------------
    75      1.053437   4 C  s                80     -0.882518   4 C  dxy       
    81     -0.882606   4 C  dxz              83      0.885179   4 C  dyz       
    77     -0.564353   4 C  py               78     -0.564510   4 C  pz        
    76      0.559787   4 C  px               94     -0.372364   5 C  s         
    56     -0.370316   3 C  s               144      0.371548  12 H  py        

 Vector  125  Occ=0.000000D+00  E= 2.209345D+00  Symmetry=a1
              MO Center= -8.8D-14,  7.6D-14,  4.9D-14, r^2= 1.4D+01
   Bfn.  Coefficient  Atom+Function         Bfn.  Coefficient  Atom+Function  
  ----- ------------  ---------------      ----- ------------  ---------------
     6      0.482731   1 Si s                42      0.459704   2 C  dxy       
    43      0.459704   2 C  dxz              45      0.459704   2 C  dyz       
    61      0.459704   3 C  dxy              62     -0.459704   3 C  dxz       
    64     -0.459704   3 C  dyz              80     -0.459704   4 C  dxy       
    81     -0.459704   4 C  dxz              83      0.459704   4 C  dyz       

 Vector  126  Occ=0.000000D+00  E= 2.268518D+00  Symmetry=t2
              MO Center=  2.0D-01, -2.2D+00, -2.4D-01, r^2= 1.2D+01
   Bfn.  Coefficient  Atom+Function         Bfn.  Coefficient  Atom+Function  
  ----- ------------  ---------------      ----- ------------  ---------------
    75      1.314581   4 C  s               141     -1.293955  12 H  s         
   147     -1.294511  13 H  s               153     -1.290909  14 H  s         
    56     -1.191058   3 C  s               123      1.172691   9 H  s         
   129      1.173247  10 H  s               135      1.168918  11 H  s         
    71     -0.600229   4 C  s               140      0.555891  12 H  s         

 Vector  127  Occ=0.000000D+00  E= 2.268518D+00  Symmetry=t2
              MO Center= -2.7D-01,  2.2D+00, -2.3D-01, r^2= 1.2D+01
   Bfn.  Coefficient  Atom+Function         Bfn.  Coefficient  Atom+Function  
  ----- ------------  ---------------      ----- ------------  ---------------
    94      1.320644   5 C  s               159     -1.300480  15 H  s         
   165     -1.299884  16 H  s               171     -1.296905  17 H  s         
    37     -1.182407   2 C  s               105      1.164770   6 H  s         
   111      1.164174   7 H  s               117      1.160382   8 H  s         
    90     -0.602997   5 C  s               158      0.558516  15 H  s         

 Vector  128  Occ=0.000000D+00  E= 2.268518D+00  Symmetry=t2
              MO Center=  6.3D-02,  6.5D-03,  4.6D-01, r^2= 1.7D+01
   Bfn.  Coefficient  Atom+Function         Bfn.  Coefficient  Atom+Function  
  ----- ------------  ---------------      ----- ------------  ---------------
    37      0.989960   2 C  s               117     -0.977074   8 H  s         
   105     -0.971933   6 H  s               111     -0.972401   7 H  s         
    56     -0.965162   3 C  s               135      0.952730  11 H  s         
   123      0.947443   9 H  s               129      0.948057  10 H  s         
    75     -0.806242   4 C  s               153      0.796715  14 H  s         

 Vector  129  Occ=0.000000D+00  E= 2.269293D+00  Symmetry=a1
              MO Center= -1.5D-14,  3.8D-15, -2.0D-14, r^2= 1.7D+01
   Bfn.  Coefficient  Atom+Function         Bfn.  Coefficient  Atom+Function  
  ----- ------------  ---------------      ----- ------------  ---------------
    37      1.008772   2 C  s                56      1.008772   3 C  s         
    75      1.008772   4 C  s                94      1.008772   5 C  s         
   105     -0.848947   6 H  s               111     -0.848947   7 H  s         
   117     -0.848947   8 H  s               123     -0.848947   9 H  s         
   129     -0.848947  10 H  s               135     -0.848947  11 H  s         

 Vector  130  Occ=0.000000D+00  E= 2.471860D+00  Symmetry=e
              MO Center= -9.0D-13,  5.9D-13,  9.8D-13, r^2= 1.5D+01
   Bfn.  Coefficient  Atom+Function         Bfn.  Coefficient  Atom+Function  
  ----- ------------  ---------------      ----- ------------  ---------------
   111      0.850750   7 H  s               129      0.850750  10 H  s         
   147      0.850750  13 H  s               165      0.850750  16 H  s         
    34     -0.545569   2 C  px               53      0.545569   3 C  px        
    72     -0.545569   4 C  px               91      0.545569   5 C  px        
   112     -0.543062   7 H  s               130     -0.543062  10 H  s         

 Vector  131  Occ=0.000000D+00  E= 2.471860D+00  Symmetry=e
              MO Center= -9.7D-14,  3.6D-13, -1.3D-13, r^2= 1.5D+01
   Bfn.  Coefficient  Atom+Function         Bfn.  Coefficient  Atom+Function  
  ----- ------------  ---------------      ----- ------------  ---------------
   105      0.789713   6 H  s               123      0.789713   9 H  s         
   141      0.789713  12 H  s               159      0.789713  15 H  s         
   117     -0.683830   8 H  s               135     -0.683830  11 H  s         
   153     -0.683830  14 H  s               171     -0.683830  17 H  s         
    36     -0.506427   2 C  pz               55     -0.506427   3 C  pz        

 Vector  132  Occ=0.000000D+00  E= 2.474751D+00  Symmetry=t2
              MO Center=  3.5D-01,  3.1D-01, -7.3D-02, r^2= 1.5D+01
   Bfn.  Coefficient  Atom+Function         Bfn.  Coefficient  Atom+Function  
  ----- ------------  ---------------      ----- ------------  ---------------
   105      0.945769   6 H  s               141     -0.752985  12 H  s         
   153      0.729363  14 H  s               159     -0.728228  15 H  s         
   165      0.721659  16 H  s               106     -0.646584   6 H  s         
    36     -0.618875   2 C  pz              104     -0.570805   6 H  s         
   117     -0.536578   8 H  s               123      0.535444   9 H  s         

 Vector  133  Occ=0.000000D+00  E= 2.474751D+00  Symmetry=t2
              MO Center= -1.3D-01,  7.8D-02,  7.0D-01, r^2= 1.4D+01
   Bfn.  Coefficient  Atom+Function         Bfn.  Coefficient  Atom+Function  
  ----- ------------  ---------------      ----- ------------  ---------------
   135      0.954864  11 H  s               117     -0.862436   8 H  s         
   111      0.851415   7 H  s               129     -0.758987  10 H  s         
   159      0.728536  15 H  s               136     -0.641646  11 H  s         
    54      0.619423   3 C  py              118      0.588214   8 H  s         
   141     -0.578587  12 H  s               134     -0.569076  11 H  s         

 Vector  134  Occ=0.000000D+00  E= 2.474751D+00  Symmetry=t2
              MO Center= -2.1D-01, -3.8D-01, -6.2D-01, r^2= 1.4D+01
   Bfn.  Coefficient  Atom+Function         Bfn.  Coefficient  Atom+Function  
  ----- ------------  ---------------      ----- ------------  ---------------
   147      1.011347  13 H  s               171      0.900457  17 H  s         
   123      0.847501   9 H  s               165     -0.735762  16 H  s         
   148     -0.672368  13 H  s                72     -0.652561   4 C  px        
   153     -0.624872  14 H  s               146     -0.598058  13 H  s         
    92     -0.566793   5 C  py              172     -0.569291  17 H  s         

 Vector  135  Occ=0.000000D+00  E= 2.480149D+00  Symmetry=t1
              MO Center=  2.6D-01, -6.6D-02,  6.0D-01, r^2= 1.5D+01
   Bfn.  Coefficient  Atom+Function         Bfn.  Coefficient  Atom+Function  
  ----- ------------  ---------------      ----- ------------  ---------------
   105      0.866611   6 H  s               123     -0.866611   9 H  s         
   111     -0.768008   7 H  s               147      0.768008  13 H  s         
   129      0.615886  10 H  s               165     -0.615886  16 H  s         
   106     -0.593652   6 H  s               124      0.593652   9 H  s         
    36     -0.558989   2 C  pz               55      0.558989   3 C  pz        

 Vector  136  Occ=0.000000D+00  E= 2.480149D+00  Symmetry=t1
              MO Center= -1.5D-01,  4.7D-01,  2.9D-02, r^2= 1.5D+01
   Bfn.  Coefficient  Atom+Function         Bfn.  Coefficient  Atom+Function  
  ----- ------------  ---------------      ----- ------------  ---------------
   117      0.836650   8 H  s               171     -0.836650  17 H  s         
   129     -0.747837  10 H  s               165      0.747837  16 H  s         
   111     -0.660068   7 H  s               147      0.660068  13 H  s         
   118     -0.573128   8 H  s               135      0.571255  11 H  s         
   153     -0.571255  14 H  s               172      0.573128  17 H  s         

 Vector  137  Occ=0.000000D+00  E= 2.480149D+00  Symmetry=t1
              MO Center= -1.1D-01, -4.0D-01, -6.3D-01, r^2= 1.4D+01
   Bfn.  Coefficient  Atom+Function         Bfn.  Coefficient  Atom+Function  
  ----- ------------  ---------------      ----- ------------  ---------------
   141      0.868733  12 H  s               159     -0.868733  15 H  s         
   135      0.800607  11 H  s               153     -0.800607  14 H  s         
   142     -0.595106  12 H  s               160      0.595106  15 H  s         
   117     -0.566093   8 H  s               171      0.566093  17 H  s         
    74      0.560358   4 C  pz               93     -0.560358   5 C  pz        

 Vector  138  Occ=0.000000D+00  E= 2.546491D+00  Symmetry=t2
              MO Center= -5.9D-01, -4.2D-01,  1.8D+00, r^2= 1.1D+01
   Bfn.  Coefficient  Atom+Function         Bfn.  Coefficient  Atom+Function  
  ----- ------------  ---------------      ----- ------------  ---------------
    56      2.553426   3 C  s                37     -1.936885   2 C  s         
   135     -1.876120  11 H  s               129     -1.809182  10 H  s         
   123     -1.699247   9 H  s               117      1.478934   8 H  s         
   111      1.411996   7 H  s               105      1.193485   6 H  s         
   138     -0.891026  11 H  py              131     -0.845289  10 H  px        

 Vector  139  Occ=0.000000D+00  E= 2.546491D+00  Symmetry=t2
              MO Center= -9.9D-02,  1.3D+00, -3.7D-02, r^2= 1.3D+01
   Bfn.  Coefficient  Atom+Function         Bfn.  Coefficient  Atom+Function  
  ----- ------------  ---------------      ----- ------------  ---------------
    94     -2.151078   5 C  s                37      2.062315   2 C  s         
   159      1.656319  15 H  s               105     -1.599137   6 H  s         
   165      1.486202  16 H  s               111     -1.429019   7 H  s         
   171      1.393576  17 H  s               117     -1.320762   8 H  s         
    56      1.010378   3 C  s                75     -0.921615   4 C  s         

 Vector  140  Occ=0.000000D+00  E= 2.546491D+00  Symmetry=t2
              MO Center=  6.9D-01, -8.6D-01, -1.7D+00, r^2= 1.1D+01
   Bfn.  Coefficient  Atom+Function         Bfn.  Coefficient  Atom+Function  
  ----- ------------  ---------------      ----- ------------  ---------------
    75      2.684838   4 C  s               147     -1.944778  13 H  s         
   153     -1.902404  14 H  s               141     -1.814484  12 H  s         
    94     -1.721016   5 C  s               165      1.323868  16 H  s         
   171      1.281494  17 H  s               159      1.023840  15 H  s         
   149      0.917821  13 H  px              156     -0.888869  14 H  py        

 Vector  141  Occ=0.000000D+00  E= 2.555130D+00  Symmetry=a1
              MO Center=  1.4D-12, -2.6D-12, -7.1D-12, r^2= 1.5D+01
   Bfn.  Coefficient  Atom+Function         Bfn.  Coefficient  Atom+Function  
  ----- ------------  ---------------      ----- ------------  ---------------
    37      1.799669   2 C  s                56      1.799669   3 C  s         
    75      1.799669   4 C  s                94      1.799669   5 C  s         
   105     -1.226624   6 H  s               111     -1.226624   7 H  s         
   117     -1.226624   8 H  s               123     -1.226624   9 H  s         
   129     -1.226624  10 H  s               135     -1.226624  11 H  s         

 Vector  142  Occ=0.000000D+00  E= 2.574219D+00  Symmetry=a1
              MO Center=  1.1D-15,  4.7D-17,  4.0D-15, r^2= 1.2D+00
   Bfn.  Coefficient  Atom+Function         Bfn.  Coefficient  Atom+Function  
  ----- ------------  ---------------      ----- ------------  ---------------
     5      9.075692   1 Si s                22     -3.450746   1 Si dxx       
    25     -3.450746   1 Si dyy              27     -3.450746   1 Si dzz       
     4     -2.963116   1 Si s                 3     -0.244376   1 Si s         
     2      0.163916   1 Si s                 1      0.062472   1 Si s         
    38      0.053088   2 C  px               39      0.053088   2 C  py        

 Vector  143  Occ=0.000000D+00  E= 2.583096D+00  Symmetry=e
              MO Center= -3.7D-15,  1.3D-14, -3.3D-14, r^2= 1.5D+01
   Bfn.  Coefficient  Atom+Function         Bfn.  Coefficient  Atom+Function  
  ----- ------------  ---------------      ----- ------------  ---------------
   117      0.890753   8 H  s               135      0.890753  11 H  s         
   153      0.890753  14 H  s               171      0.890753  17 H  s         
   120     -0.715478   8 H  py              138      0.715478  11 H  py        
   156      0.715478  14 H  py              174     -0.715478  17 H  py        
   105     -0.608616   6 H  s               123     -0.608616   9 H  s         

 Vector  144  Occ=0.000000D+00  E= 2.583096D+00  Symmetry=e
              MO Center=  4.5D-14, -7.0D-17, -1.1D-13, r^2= 1.5D+01
   Bfn.  Coefficient  Atom+Function         Bfn.  Coefficient  Atom+Function  
  ----- ------------  ---------------      ----- ------------  ---------------
   111      0.865661   7 H  s               129      0.865661  10 H  s         
   147      0.865661  13 H  s               165      0.865661  16 H  s         
   113     -0.695324   7 H  px              131      0.695324  10 H  px        
   149     -0.695324  13 H  px              167      0.695324  16 H  px        
   105     -0.677169   6 H  s               123     -0.677169   9 H  s         

 Vector  145  Occ=0.000000D+00  E= 2.590553D+00  Symmetry=t1
              MO Center=  6.6D-01, -3.3D-02,  1.2D-01, r^2= 1.5D+01
   Bfn.  Coefficient  Atom+Function         Bfn.  Coefficient  Atom+Function  
  ----- ------------  ---------------      ----- ------------  ---------------
   111      1.038829   7 H  s               147     -1.038829  13 H  s         
   105     -0.853949   6 H  s               123      0.853949   9 H  s         
   113     -0.792319   7 H  px              149      0.792319  13 H  px        
   141      0.772563  12 H  s               159     -0.772563  15 H  s         
   109      0.651309   6 H  pz              127     -0.651309   9 H  pz        

 Vector  146  Occ=0.000000D+00  E= 2.590553D+00  Symmetry=t1
              MO Center= -5.1D-01, -1.1D+00, -3.5D-01, r^2= 1.3D+01
   Bfn.  Coefficient  Atom+Function         Bfn.  Coefficient  Atom+Function  
  ----- ------------  ---------------      ----- ------------  ---------------
   135      1.136994  11 H  s               153     -1.136994  14 H  s         
   129     -0.886788  10 H  s               165      0.886788  16 H  s         
   138      0.867189  11 H  py              156     -0.867189  14 H  py        
   131     -0.676356  10 H  px              167      0.676356  16 H  px        
   141      0.671426  12 H  s               159     -0.671426  15 H  s         

 Vector  147  Occ=0.000000D+00  E= 2.590553D+00  Symmetry=t1
              MO Center= -1.5D-01,  1.2D+00,  2.3D-01, r^2= 1.4D+01
   Bfn.  Coefficient  Atom+Function         Bfn.  Coefficient  Atom+Function  
  ----- ------------  ---------------      ----- ------------  ---------------
   117      1.160727   8 H  s               171     -1.160727  17 H  s         
   120     -0.885290   8 H  py              174      0.885290  17 H  py        
   105     -0.797507   6 H  s               123      0.797507   9 H  s         
    44     -0.666656   2 C  dyy             101      0.666656   5 C  dyy       
   141     -0.616589  12 H  s               159      0.616589  15 H  s         

 Vector  148  Occ=0.000000D+00  E= 2.617008D+00  Symmetry=t2
              MO Center=  6.1D-01, -2.2D-02,  1.5D-02, r^2= 1.5D+01
   Bfn.  Coefficient  Atom+Function         Bfn.  Coefficient  Atom+Function  
  ----- ------------  ---------------      ----- ------------  ---------------
   129     -1.070802  10 H  s               117     -1.060267   8 H  s         
   141     -1.055324  12 H  s               165      1.040166  16 H  s         
   105      1.023890   6 H  s               153      1.028833  14 H  s         
   145     -0.795703  12 H  pz              109     -0.776246   6 H  pz        
   120      0.754403   8 H  py              156      0.734946  14 H  py        

 Vector  149  Occ=0.000000D+00  E= 2.617008D+00  Symmetry=t2
              MO Center= -6.7D-02, -2.2D-01, -3.6D-01, r^2= 1.5D+01
   Bfn.  Coefficient  Atom+Function         Bfn.  Coefficient  Atom+Function  
  ----- ------------  ---------------      ----- ------------  ---------------
   123      1.063533   9 H  s               171      1.061342  17 H  s         
   147      1.048768  13 H  s               149     -0.812007  13 H  px        
   105     -0.804049   6 H  s               153     -0.795095  14 H  s         
   165     -0.782521  16 H  s               174     -0.706971  17 H  py        
   127     -0.688662   9 H  pz               79     -0.669054   4 C  dxx       

 Vector  150  Occ=0.000000D+00  E= 2.617008D+00  Symmetry=t2
              MO Center= -5.5D-01,  2.4D-01,  3.4D-01, r^2= 1.5D+01
   Bfn.  Coefficient  Atom+Function         Bfn.  Coefficient  Atom+Function  
  ----- ------------  ---------------      ----- ------------  ---------------
   111      1.244764   7 H  s               135      1.236398  11 H  s         
   159      1.240865  15 H  s               138      0.898770  11 H  py        
   163      0.861451  15 H  pz              113     -0.828883   7 H  px        
    75      0.769995   4 C  s               147     -0.745477  13 H  s         
   123     -0.728566   9 H  s               171     -0.724098  17 H  s         

 Vector  151  Occ=0.000000D+00  E= 2.899329D+00  Symmetry=a1
              MO Center= -1.4D-15, -4.1D-15, -2.7D-16, r^2= 1.1D+01
   Bfn.  Coefficient  Atom+Function         Bfn.  Coefficient  Atom+Function  
  ----- ------------  ---------------      ----- ------------  ---------------
    37      1.814390   2 C  s                56      1.814390   3 C  s         
    75      1.814390   4 C  s                94      1.814390   5 C  s         
    33      0.846208   2 C  s                52      0.846208   3 C  s         
    71      0.846208   4 C  s                90      0.846208   5 C  s         
   105     -0.579694   6 H  s               111     -0.579694   7 H  s         

 Vector  152  Occ=0.000000D+00  E= 2.903071D+00  Symmetry=t2
              MO Center= -1.2D+00, -7.1D-01,  1.2D+00, r^2= 7.5D+00
   Bfn.  Coefficient  Atom+Function         Bfn.  Coefficient  Atom+Function  
  ----- ------------  ---------------      ----- ------------  ---------------
    56      3.236478   3 C  s                37     -1.535417   2 C  s         
    94     -1.446788   5 C  s                52      1.416686   3 C  s         
   135     -1.122781  11 H  s               123     -1.052398   9 H  s         
   129     -1.057267  10 H  s                60     -0.826757   3 C  dxx       
    65     -0.829014   3 C  dzz              63     -0.796391   3 C  dyy       

 Vector  153  Occ=0.000000D+00  E= 2.903071D+00  Symmetry=t2
              MO Center=  4.4D-01, -5.8D-01, -1.6D+00, r^2= 7.8D+00
   Bfn.  Coefficient  Atom+Function         Bfn.  Coefficient  Atom+Function  
  ----- ------------  ---------------      ----- ------------  ---------------
    75      3.061931   4 C  s                94     -2.236860   5 C  s         
    71      1.340282   4 C  s               147     -1.072996  13 H  s         
   153     -1.032564  14 H  s                90     -0.979128   5 C  s         
   141     -0.952556  12 H  s               165      0.828534  16 H  s         
    84     -0.804275   4 C  dzz             171      0.788102  17 H  s         

 Vector  154  Occ=0.000000D+00  E= 2.903071D+00  Symmetry=t2
              MO Center=  7.4D-01,  1.3D+00,  3.6D-01, r^2= 8.6D+00
   Bfn.  Coefficient  Atom+Function         Bfn.  Coefficient  Atom+Function  
  ----- ------------  ---------------      ----- ------------  ---------------
    37      2.980456   2 C  s                94     -2.036141   5 C  s         
    75     -1.342585   4 C  s                33      1.304619   2 C  s         
   105     -1.068708   6 H  s               111     -0.973069   7 H  s         
   117     -0.934967   8 H  s                90     -0.891269   5 C  s         
   159      0.788914  15 H  s                44     -0.779279   2 C  dyy       

 Vector  155  Occ=0.000000D+00  E= 3.627469D+00  Symmetry=e
              MO Center=  2.7D-11, -2.6D-14,  1.6D-12, r^2= 1.3D+01
   Bfn.  Coefficient  Atom+Function         Bfn.  Coefficient  Atom+Function  
  ----- ------------  ---------------      ----- ------------  ---------------
    34      1.195357   2 C  px               53     -1.195357   3 C  px        
    72      1.195357   4 C  px               91     -1.195357   5 C  px        
    41      0.804343   2 C  dxx              60      0.804343   3 C  dxx       
    79      0.804343   4 C  dxx              98      0.804343   5 C  dxx       
   111     -0.704818   7 H  s               129     -0.704818  10 H  s         

 Vector  156  Occ=0.000000D+00  E= 3.627469D+00  Symmetry=e
              MO Center=  1.9D-12, -4.9D-12,  1.3D-11, r^2= 1.3D+01
   Bfn.  Coefficient  Atom+Function         Bfn.  Coefficient  Atom+Function  
  ----- ------------  ---------------      ----- ------------  ---------------
    35      1.042877   2 C  py               54     -1.042877   3 C  py        
    73     -1.042877   4 C  py               92      1.042877   5 C  py        
    36     -1.027542   2 C  pz               55     -1.027542   3 C  pz        
    74      1.027542   4 C  pz               93      1.027542   5 C  pz        
    44      0.701741   2 C  dyy              63      0.701741   3 C  dyy       

 Vector  157  Occ=0.000000D+00  E= 3.628028D+00  Symmetry=t2
              MO Center= -8.1D-01, -4.1D-01, -3.3D-01, r^2= 1.3D+01
   Bfn.  Coefficient  Atom+Function         Bfn.  Coefficient  Atom+Function  
  ----- ------------  ---------------      ----- ------------  ---------------
    55      1.429729   3 C  pz               92      1.336266   5 C  py        
    72      1.162720   4 C  px               93      1.068680   5 C  pz        
    54      0.975218   3 C  py               65      0.962794   3 C  dzz       
   101      0.899938   5 C  dyy             123     -0.847722   9 H  s         
   127      0.821009   9 H  pz              171     -0.790512  17 H  s         

 Vector  158  Occ=0.000000D+00  E= 3.628028D+00  Symmetry=t2
              MO Center=  8.9D-01,  3.3D-02, -4.0D-02, r^2= 1.3D+01
   Bfn.  Coefficient  Atom+Function         Bfn.  Coefficient  Atom+Function  
  ----- ------------  ---------------      ----- ------------  ---------------
    73      1.324197   4 C  py               35      1.290122   2 C  py        
    36     -1.233783   2 C  pz               74     -1.199707   4 C  pz        
    82     -0.891662   4 C  dyy              91      0.875444   5 C  px        
    44      0.868701   2 C  dyy              46     -0.830856   2 C  dzz       
    53     -0.807301   3 C  px               84      0.807895   4 C  dzz       

 Vector  159  Occ=0.000000D+00  E= 3.628028D+00  Symmetry=t2
              MO Center= -8.4D-02,  3.8D-01,  3.7D-01, r^2= 1.3D+01
   Bfn.  Coefficient  Atom+Function         Bfn.  Coefficient  Atom+Function  
  ----- ------------  ---------------      ----- ------------  ---------------
    34      1.397223   2 C  px               91      1.145282   5 C  px        
    53      1.136373   3 C  px               54     -0.952820   3 C  py        
    93     -0.957274   5 C  pz               41      0.940733   2 C  dxx       
    72      0.884432   4 C  px              111     -0.832166   7 H  s         
   113      0.803148   7 H  px               98     -0.770972   5 C  dxx       

 Vector  160  Occ=0.000000D+00  E= 3.628837D+00  Symmetry=t1
              MO Center=  1.4D-01, -9.2D-01,  7.5D-02, r^2= 1.3D+01
   Bfn.  Coefficient  Atom+Function         Bfn.  Coefficient  Atom+Function  
  ----- ------------  ---------------      ----- ------------  ---------------
    54      1.397721   3 C  py               73     -1.397721   4 C  py        
    34      0.993774   2 C  px               72     -0.993774   4 C  px        
    63     -0.941276   3 C  dyy              82      0.941276   4 C  dyy       
    53     -0.843488   3 C  px               91      0.843488   5 C  px        
   135      0.834868  11 H  s               153     -0.834868  14 H  s         

 Vector  161  Occ=0.000000D+00  E= 3.628837D+00  Symmetry=t1
              MO Center= -2.0D-01,  9.1D-01,  3.7D-01, r^2= 1.3D+01
   Bfn.  Coefficient  Atom+Function         Bfn.  Coefficient  Atom+Function  
  ----- ------------  ---------------      ----- ------------  ---------------
    35      1.381719   2 C  py               92     -1.381719   5 C  py        
    36     -1.095210   2 C  pz               55      1.095210   3 C  pz        
    44      0.930499   2 C  dyy             101     -0.930499   5 C  dyy       
   117     -0.825310   8 H  s               171      0.825310  17 H  s         
   120      0.794065   8 H  py              174     -0.794065  17 H  py        

 Vector  162  Occ=0.000000D+00  E= 3.628837D+00  Symmetry=t1
              MO Center=  5.6D-02,  1.1D-02, -4.4D-01, r^2= 1.3D+01
   Bfn.  Coefficient  Atom+Function         Bfn.  Coefficient  Atom+Function  
  ----- ------------  ---------------      ----- ------------  ---------------
    74      1.226898   4 C  pz               93     -1.226898   5 C  pz        
    34     -1.043283   2 C  px               72      1.043283   4 C  px        
    53     -0.990742   3 C  px               91      0.990742   5 C  px        
    84     -0.826237   4 C  dzz             103      0.826237   5 C  dzz       
    36      0.807127   2 C  pz               55     -0.807127   3 C  pz        

 Vector  163  Occ=0.000000D+00  E= 3.735950D+00  Symmetry=t2
              MO Center= -1.8D+00,  4.4D-01, -2.3D-01, r^2= 1.2D+01
   Bfn.  Coefficient  Atom+Function         Bfn.  Coefficient  Atom+Function  
  ----- ------------  ---------------      ----- ------------  ---------------
    91      1.202818   5 C  px               92     -1.202734   5 C  py        
    93      1.202632   5 C  pz               98     -1.109397   5 C  dxx       
   101     -1.108269   5 C  dyy             103     -1.106900   5 C  dzz       
    53     -1.010191   3 C  px               54     -1.010049   3 C  py        
    55      1.009947   3 C  pz              165      0.987170  16 H  s         

 Vector  164  Occ=0.000000D+00  E= 3.735950D+00  Symmetry=t2
              MO Center=  7.7D-01, -1.2D+00, -1.7D+00, r^2= 1.0D+01
   Bfn.  Coefficient  Atom+Function         Bfn.  Coefficient  Atom+Function  
  ----- ------------  ---------------      ----- ------------  ---------------
    72      1.356721   4 C  px               73     -1.356796   4 C  py        
    74     -1.356827   4 C  pz               79      1.249328   4 C  dxx       
    82      1.250327   4 C  dyy              84      1.250742   4 C  dzz       
   141     -1.111819  12 H  s               147     -1.108451  13 H  s         
   153     -1.110830  14 H  s               145     -0.818383  12 H  pz        

 Vector  165  Occ=0.000000D+00  E= 3.735950D+00  Symmetry=t2
              MO Center=  9.9D-01,  8.0D-01,  1.9D+00, r^2= 9.7D+00
   Bfn.  Coefficient  Atom+Function         Bfn.  Coefficient  Atom+Function  
  ----- ------------  ---------------      ----- ------------  ---------------
    34      1.358504   2 C  px               35      1.358469   2 C  py        
    36      1.358574   2 C  pz               41      1.251574   2 C  dxx       
    44      1.251103   2 C  dyy              46      1.252515   2 C  dzz       
   105     -1.113653   6 H  s               111     -1.111413   7 H  s         
   117     -1.110292   8 H  s                53      0.847965   3 C  px        

 Vector  166  Occ=0.000000D+00  E= 3.737828D+00  Symmetry=a1
              MO Center= -2.5D-12,  1.0D-11, -1.9D-11, r^2= 1.5D+01
   Bfn.  Coefficient  Atom+Function         Bfn.  Coefficient  Atom+Function  
  ----- ------------  ---------------      ----- ------------  ---------------
    34      0.817600   2 C  px               35      0.817600   2 C  py        
    36      0.817600   2 C  pz               53     -0.817600   3 C  px        
    54     -0.817600   3 C  py               55      0.817600   3 C  pz        
    72      0.817600   4 C  px               73     -0.817600   4 C  py        
    74     -0.817600   4 C  pz               91     -0.817600   5 C  px        

 Vector  167  Occ=0.000000D+00  E= 9.216365D+00  Symmetry=a1
              MO Center= -3.8D-16,  5.3D-16, -5.6D-16, r^2= 6.4D-01
   Bfn.  Coefficient  Atom+Function         Bfn.  Coefficient  Atom+Function  
  ----- ------------  ---------------      ----- ------------  ---------------
     5     13.951424   1 Si s                 4     -8.042834   1 Si s         
    22     -4.385403   1 Si dxx              25     -4.385403   1 Si dyy       
    27     -4.385403   1 Si dzz               3      3.481601   1 Si s         
     6     -1.335379   1 Si s                 2     -0.453979   1 Si s         
     1     -0.113957   1 Si s                37      0.099363   2 C  s         

 Vector  168  Occ=0.000000D+00  E= 1.118032D+01  Symmetry=t2
              MO Center= -2.6D-05, -3.8D-05, -1.6D-03, r^2= 3.0D-01
   Bfn.  Coefficient  Atom+Function         Bfn.  Coefficient  Atom+Function  
  ----- ------------  ---------------      ----- ------------  ---------------
    10      1.128709   1 Si px                7     -0.983684   1 Si px        
    13     -0.819108   1 Si px               11      0.769460   1 Si py        
     8     -0.670594   1 Si py               14     -0.558400   1 Si py        
    16      0.549942   1 Si px               17      0.374905   1 Si py        
    19     -0.214996   1 Si px               20     -0.146567   1 Si py        

 Vector  169  Occ=0.000000D+00  E= 1.118032D+01  Symmetry=t2
              MO Center= -1.4D-03,  1.0D-03,  7.9D-04, r^2= 3.0D-01
   Bfn.  Coefficient  Atom+Function         Bfn.  Coefficient  Atom+Function  
  ----- ------------  ---------------      ----- ------------  ---------------
    12      0.984324   1 Si pz                9     -0.857850   1 Si pz        
    11      0.775521   1 Si py               15     -0.714327   1 Si pz        
     8     -0.675876   1 Si py               14     -0.562798   1 Si py        
    10     -0.544096   1 Si px               18      0.479593   1 Si pz        
     7      0.474186   1 Si px               13      0.394852   1 Si px        

 Vector  170  Occ=0.000000D+00  E= 1.118032D+01  Symmetry=t2
              MO Center=  1.5D-03, -9.7D-04,  8.4D-04, r^2= 3.0D-01
   Bfn.  Coefficient  Atom+Function         Bfn.  Coefficient  Atom+Function  
  ----- ------------  ---------------      ----- ------------  ---------------
    12      0.947185   1 Si pz                9     -0.825484   1 Si pz        
    11     -0.820283   1 Si py                8      0.714887   1 Si py        
    15     -0.687375   1 Si pz               14      0.595282   1 Si py        
    10      0.544373   1 Si px                7     -0.474427   1 Si px        
    18      0.461498   1 Si pz               17     -0.399668   1 Si py        

 Vector  171  Occ=0.000000D+00  E= 2.650789D+01  Symmetry=t2
              MO Center=  1.1D-01,  1.3D+00,  2.7D-01, r^2= 9.0D+00
   Bfn.  Coefficient  Atom+Function         Bfn.  Coefficient  Atom+Function  
  ----- ------------  ---------------      ----- ------------  ---------------
    29      1.763465   2 C  s                86     -1.565528   5 C  s         
    28     -1.450949   2 C  s                85      1.288089   5 C  s         
    48     -0.808547   3 C  s                33     -0.739913   2 C  s         
    47      0.665259   3 C  s                90      0.656863   5 C  s         
    67      0.610610   4 C  s                66     -0.502399   4 C  s         

 Vector  172  Occ=0.000000D+00  E= 2.650789D+01  Symmetry=t2
              MO Center=  1.7D+00, -8.3D-01, -8.1D-01, r^2= 6.6D+00
   Bfn.  Coefficient  Atom+Function         Bfn.  Coefficient  Atom+Function  
  ----- ------------  ---------------      ----- ------------  ---------------
    67      2.134162   4 C  s                66     -1.755952   4 C  s         
    29     -1.296791   2 C  s                28      1.066978   2 C  s         
    71     -0.895450   4 C  s                75     -0.567807   4 C  s         
    79      0.567282   4 C  dxx              82      0.565637   4 C  dyy       
    84      0.565585   4 C  dzz              33      0.544107   2 C  s         

 Vector  173  Occ=0.000000D+00  E= 2.650789D+01  Symmetry=t2
              MO Center= -1.8D+00, -4.7D-01,  5.5D-01, r^2= 7.0D+00
   Bfn.  Coefficient  Atom+Function         Bfn.  Coefficient  Atom+Function  
  ----- ------------  ---------------      ----- ------------  ---------------
    48      2.024809   3 C  s                47     -1.665978   3 C  s         
    86     -1.524951   5 C  s                85      1.254703   5 C  s         
    52     -0.849568   3 C  s                90      0.639838   5 C  s         
    56     -0.538714   3 C  s                60      0.538776   3 C  dxx       
    63      0.536090   3 C  dyy              65      0.536608   3 C  dzz       

 Vector  174  Occ=0.000000D+00  E= 2.651603D+01  Symmetry=a1
              MO Center=  4.0D-13, -2.5D-12,  2.7D-12, r^2= 1.1D+01
   Bfn.  Coefficient  Atom+Function         Bfn.  Coefficient  Atom+Function  
  ----- ------------  ---------------      ----- ------------  ---------------
    29      1.283845   2 C  s                48      1.283845   3 C  s         
    67      1.283845   4 C  s                86      1.283845   5 C  s         
    28     -1.055993   2 C  s                47     -1.055993   3 C  s         
    66     -1.055993   4 C  s                85     -1.055993   5 C  s         
    33     -0.539759   2 C  s                52     -0.539759   3 C  s         

 Vector  175  Occ=0.000000D+00  E= 1.464268D+02  Symmetry=a1
              MO Center= -2.5D-19, -1.5D-19, -2.9D-18, r^2= 5.2D-02
   Bfn.  Coefficient  Atom+Function         Bfn.  Coefficient  Atom+Function  
  ----- ------------  ---------------      ----- ------------  ---------------
     5      3.760776   1 Si s                 4     -2.488819   1 Si s         
     2     -1.949804   1 Si s                 3      1.807156   1 Si s         
     1      1.570467   1 Si s                22     -1.160545   1 Si dxx       
    25     -1.160545   1 Si dyy              27     -1.160545   1 Si dzz       
     6     -0.384735   1 Si s         


 center of mass
 --------------
 x =   0.00000000 y =   0.00000000 z =  -0.00000000

 moments of inertia (a.u.)
 ------------------
        1669.167936964611           0.000000000000           0.000000000000
           0.000000000000        1669.167936964611           0.000000000000
           0.000000000000           0.000000000000        1669.167936964611

     Multipole analysis of the density
     ---------------------------------

     L   x y z        total         alpha         beta         nuclear
     -   - - -        -----         -----         ----         -------
     0   0 0 0     -0.000000    -25.000000    -25.000000     50.000000

     1   1 0 0     -0.000000      0.000000      0.000000     -0.000000
     1   0 1 0     -0.000000     -0.000000     -0.000000     -0.000000
     1   0 0 1     -0.000000     -0.000000     -0.000000     -0.000000

     2   2 0 0    -31.159688   -280.524961   -280.524961    529.890235
     2   1 1 0      0.000000      0.000000      0.000000     -0.000000
     2   1 0 1      0.000000      0.000000      0.000000     -0.000000
     2   0 2 0    -31.159688   -280.524961   -280.524961    529.890235
     2   0 1 1     -0.000000     -0.000000     -0.000000      0.000000
     2   0 0 2    -31.159688   -280.524961   -280.524961    529.890235


            General Information
            -------------------
          SCF calculation type: DFT
          Wavefunction type:  closed shell.
          No. of atoms     :    17
          No. of electrons :    50
           Alpha electrons :    25
            Beta electrons :    25
          Charge           :     0
          Spin multiplicity:     1
          Use of symmetry is: on ; symmetry adaption is: on 
          Maximum number of iterations:  50
          AO basis - number of functions:   175
                     number of shells:    92
          Convergence on energy requested:  1.00D-07
          Convergence on density requested:  1.00D-06
          Convergence on gradient requested:  5.00D-04

              XC Information
              --------------
                         PBE0 Method XC Functional
                     Hartree-Fock (Exact) Exchange  0.250          
          PerdewBurkeErnzerhof Exchange Functional  0.750          
            Perdew 1991 LDA Correlation Functional  1.000 local    
           PerdewBurkeErnz. Correlation Functional  1.000 non-local

             Grid Information
             ----------------
          Grid used for XC integration:  medium    
          Radial quadrature: Mura-Knowles        
          Angular quadrature: Lebedev. 
          Tag              B.-S. Rad. Rad. Pts. Rad. Cut. Ang. Pts.
          ---              ---------- --------- --------- ---------
          Si                  1.10       88          11.0       590
          C                   0.70       49          14.0       434
          H                   0.35       45          15.0       434
          Grid pruning is: on 
          Number of quadrature shells:   182
          Spatial weights used:  Erf1

          Convergence Information
          -----------------------
          Convergence aids based upon iterative change in 
          total energy or number of iterations. 
          Levelshifting, if invoked, occurs when the 
          HOMO/LUMO gap drops below (HL_TOL):  1.00D-02
          DIIS, if invoked, will attempt to extrapolate 
          using up to (NFOCK): 10 stored Fock matrices.

                    Damping( 0%)  Levelshifting(0.5)       DIIS
                  --------------- ------------------- ---------------
          dE  on:    start            ASAP                start   
          dE off:    2 iters         50 iters            50 iters 


      Screening Tolerance Information
      -------------------------------
          Density screening/tol_rho:  1.00D-10
          AO Gaussian exp screening on grid/accAOfunc:  16
          CD Gaussian exp screening on grid/accCDfunc:  20
          XC Gaussian exp screening on grid/accXCfunc:  20
          Schwarz screening/accCoul:  1.00D-08



                            NWChem DFT Gradient Module
                            --------------------------



  charge          =   0.00
  wavefunction    = closed shell

  Using symmetry


                         DFT ENERGY GRADIENTS

    atom               coordinates                        gradient
                 x          y          z           x          y          z
   1 Si      0.000000   0.000000   0.000000    0.000000   0.000000   0.000000
   2 C       3.552685   3.552685   3.552685   -0.031673  -0.031673  -0.031673
   3 C      -3.552685  -3.552685   3.552685    0.031673   0.031673  -0.031673
   4 C       3.552685  -3.552685  -3.552685   -0.031673   0.031673   0.031673
   5 C      -3.552685   3.552685  -3.552685    0.031673  -0.031673   0.031673
   6 H       3.552685   3.552685   5.612486    0.032561   0.032561  -0.012329
   7 H       5.612486   3.552685   3.552685   -0.012329   0.032561   0.032561
   8 H       3.552685   5.612486   3.552685    0.032561  -0.012329   0.032561
   9 H      -3.552685  -3.552685   5.612486   -0.032561  -0.032561  -0.012329
  10 H      -5.612486  -3.552685   3.552685    0.012329  -0.032561   0.032561
  11 H      -3.552685  -5.612486   3.552685   -0.032561   0.012329   0.032561
  12 H       3.552685  -3.552685  -5.612486    0.032561  -0.032561   0.012329
  13 H       5.612486  -3.552685  -3.552685   -0.012329  -0.032561  -0.032561
  14 H       3.552685  -5.612486  -3.552685    0.032561   0.012329  -0.032561
  15 H      -3.552685   3.552685  -5.612486   -0.032561   0.032561   0.012329
  16 H      -5.612486   3.552685  -3.552685    0.012329   0.032561  -0.032561
  17 H      -3.552685   5.612486  -3.552685   -0.032561  -0.012329  -0.032561

                 ----------------------------------------
                 |  Time  |  1-e(secs)   |  2-e(secs)   |
                 ----------------------------------------
                 |  CPU   |       0.00   |       3.65   |
                 ----------------------------------------
                 |  WALL  |       0.00   |       3.65   |
                 ----------------------------------------

 Task  times  cpu:        8.1s     wall:        8.1s


                                NWChem Input Module
                                -------------------


 Summary of allocated global arrays
-----------------------------------
  No active global arrays


MA_summarize_allocated_blocks: starting scan ...
MA_summarize_allocated_blocks: scan completed: 0 heap blocks, 0 stack blocks
MA usage statistics:

	allocation statistics:
					      heap	     stack
					      ----	     -----
	current number of blocks	         0	         0
	maximum number of blocks	        25	        62
	current total bytes		         0	         0
	maximum total bytes		 273141728	  34736440
	maximum total K-bytes		    273142	     34737
	maximum total M-bytes		       274	        35


                                     CITATION
                                     --------
                Please cite the following reference when publishing
                           results obtained with NWChem:

          E. Apra, E. J. Bylaska, W. A. de Jong, N. Govind, K. Kowalski,
       T. P. Straatsma, M. Valiev, H. J. J. van Dam, Y. Alexeev, J. Anchell,
       V. Anisimov, F. W. Aquino, R. Atta-Fynn, J. Autschbach, N. P. Bauman,
     J. C. Becca, D. E. Bernholdt, K. Bhaskaran-Nair, S. Bogatko, P. Borowski,
         J. Boschen, J. Brabec, A. Bruner, E. Cauet, Y. Chen, G. N. Chuev,
      C. J. Cramer, J. Daily, M. J. O. Deegan, T. H. Dunning Jr., M. Dupuis,
   K. G. Dyall, G. I. Fann, S. A. Fischer, A. Fonari, H. Fruchtl, L. Gagliardi,
      J. Garza, N. Gawande, S. Ghosh, K. Glaesemann, A. W. Gotz, J. Hammond,
       V. Helms, E. D. Hermes, K. Hirao, S. Hirata, M. Jacquelin, L. Jensen,
   B. G. Johnson, H. Jonsson, R. A. Kendall, M. Klemm, R. Kobayashi, V. Konkov,
      S. Krishnamoorthy, M. Krishnan, Z. Lin, R. D. Lins, R. J. Littlefield,
      A. J. Logsdail, K. Lopata, W. Ma, A. V. Marenich, J. Martin del Campo,
   D. Mejia-Rodriguez, J. E. Moore, J. M. Mullin, T. Nakajima, D. R. Nascimento,
    J. A. Nichols, P. J. Nichols, J. Nieplocha, A. Otero-de-la-Roza, B. Palmer,
    A. Panyala, T. Pirojsirikul, B. Peng, R. Peverati, J. Pittner, L. Pollack,
   R. M. Richard, P. Sadayappan, G. C. Schatz, W. A. Shelton, D. W. Silverstein,
   D. M. A. Smith, T. A. Soares, D. Song, M. Swart, H. L. Taylor, G. S. Thomas,
            V. Tipparaju, D. G. Truhlar, K. Tsemekhman, T. Van Voorhis,
      A. Vazquez-Mayagoitia, P. Verma, O. Villa, A. Vishnu, K. D. Vogiatzis,
        D. Wang, J. H. Weare, M. J. Williamson, T. L. Windus, K. Wolinski,
        A. T. Wong, Q. Wu, C. Yang, Q. Yu, M. Zacharias, Z. Zhang, Y. Zhao,
                                and R. J. Harrison
                        "NWChem: Past, present, and future
                         J. Chem. Phys. 152, 184102 (2020)
                               doi:10.1063/5.0004997

                                      AUTHORS
                                      -------
        E. Apra, E. J. Bylaska, N. Govind, K. Kowalski, D. Mejia-Rodriguez,
        N. P. Bauman, A. Panyala, R. J. Harrison, M. Valiev, W. A. de Jong,
       T. P. Straatsma, H. J. J. van Dam, D. Wang, T. L. Windus, J. Hammond,
     J. Autschbach, R. de P. Soares, A. Kunitsa, K. Bhaskaran-Nair, J. Brabec,
      K. Lopata, S. A. Fischer, S. Krishnamoorthy, M. Jacquelin, R. Goswami,
       A. Woods, W. Ma, M. Klemm, O. Villa, Y. Chen, V. Anisimov, F. Aquino,
     S. Hirata, M. T. Hackler, E. Hermes, L. Jensen, J. E. Moore, J. C. Becca,
      V. Konjkov, T. Risthaus, M. Malagoli, A. Marenich, A. Otero-de-la-Roza,
        J. Mullin, P. Nichols, R. Peverati, J. Pittner, Y. Zhao, P.-D. Fan,
        A. Fonari, M. J. Williamson, J. R. Rehr, M. Dupuis, D. Silverstein,
    D. M. A. Smith, J. Nieplocha, V. Tipparaju, M. Krishnan, B. E. Van Kuiken,
        A. Vazquez-Mayagoitia, M. Swart, Q. Wu, T. Van Voorhis, A. A. Auer,
     M. Nooijen, L. D. Crosby, E. Brown, G. Cisneros, G. I. Fann, H. Fruchtl,
   J. Garza, K. Hirao, R. A. Kendall, J. A. Nichols, K. Tsemekhman, K. Wolinski,
     J. Anchell, D. E. Bernholdt, P. Borowski, T. Clark, D. Clerc, H. Dachsel,
   M. J. O. Deegan, K. Dyall, D. Elwood, E. Glendening, M. Gutowski, A. C. Hess,
         J. Jaffe, B. G. Johnson, J. Ju, R. Kobayashi, R. Kutteh, Z. Lin,
   R. Littlefield, X. Long, B. Meng, T. Nakajima, S. Niu, L. Pollack, M. Rosing,
   K. Glaesemann, G. Sandrone, M. Stave, H. Taylor, G. Thomas, J. H. van Lenthe,
                               A. T. Wong, Z. Zhang.

 Total times  cpu:        8.1s     wall:        8.1s
