 argument  1 = tms_nmr.nwi
                                         
                                         


             Northwest Computational Chemistry Package (NWChem) 7.3.0
             --------------------------------------------------------


                    Environmental Molecular Sciences Laboratory
                       Pacific Northwest National Laboratory
                                Richland, WA 99352

                              Copyright (c) 1994-2025
                       Pacific Northwest National Laboratory
                            Battelle Memorial Institute

             NWChem is an open-source computational chemistry package
                        distributed under the terms of the
                      Educational Community License (ECL) 2.0
             A copy of the license is included with this distribution
                              in the LICENSE.TXT file

                                  ACKNOWLEDGMENT
                                  --------------

            This software and its documentation were developed at the
            EMSL at Pacific Northwest National Laboratory, a multiprogram
            national laboratory, operated for the U.S. Department of Energy
            by Battelle under Contract Number DE-AC05-76RL01830. Support
            for this work was provided by the Department of Energy Office
            of Biological and Environmental Research, Office of Basic
            Energy Sciences, and the Office of Advanced Scientific Computing.


           Job information
           ---------------

    hostname        = MIRO
    program         = nwchem
    date            = Tue Aug 25 08:30:15 2026

    compiled        = Wed_Dec_10_07:16:07_2025
    source          = /home/conda/feedstock_root/build_artifacts/bld/rattler-build_nwchem_1765343033/work
    nwchem branch   = 7.3.0
    nwchem revision = 3272822
    ga revision     = 5.9.2
    use scalapack   = T
    input           = tms_nmr.nwi
    prefix          = tms_nmr.
    data base       = ./tms_nmr.db
    status          = startup
    nproc           =        1
    time left       =     -1s



           Memory information
           ------------------

    heap     =     26214398 doubles =      200.0 Mbytes
    stack    =     26214395 doubles =      200.0 Mbytes
    global   =     52428800 doubles =      400.0 Mbytes (distinct from heap & stack)
    total    =    104857593 doubles =      800.0 Mbytes
    verify   = yes
    hardfail = no 


           Directory information
           ---------------------

  0 permanent = .
  0 scratch   = .




                                NWChem Input Module
                                -------------------



 Scaling coordinates for geometry "geometry" by  1.889725989
 (inverse scale =  0.529177249)

 TD  symmetry detected

          ------
          auto-z
          ------
  autoz: The atoms group into disjoint clusters
 cluster   1:    1
 cluster   2:    2    6    7    8
 cluster   3:    3    9   10   11
 cluster   4:    4   12   13   14
 cluster   5:    5   15   16   17
 Connecting clusters   1   2 via atoms    1    2 r = 3.26
 Connecting clusters   1   3 via atoms    1    3 r = 3.26
 Connecting clusters   1   4 via atoms    1    4 r = 3.26
 Connecting clusters   1   5 via atoms    1    5 r = 3.26
  autoz: regenerating connections with new bonds
  no constraints, skipping    0.0000000000000000     
  no constraints, skipping    0.0000000000000000     


                             Geometry "geometry" -> ""
                             -------------------------

 Output coordinates in angstroms (scale by  1.889725989 to convert to a.u.)

  No.       Tag          Charge          X              Y              Z
 ---- ---------------- ---------- -------------- -------------- --------------
    1 Si                  14.0000     0.00000000     0.00000000     0.00000000
    2 C                    6.0000     1.88000000     1.88000000     1.88000000
    3 C                    6.0000    -1.88000000    -1.88000000     1.88000000
    4 C                    6.0000     1.88000000    -1.88000000    -1.88000000
    5 C                    6.0000    -1.88000000     1.88000000    -1.88000000
    6 H                    1.0000     1.88000000     1.88000000     2.97000000
    7 H                    1.0000     2.97000000     1.88000000     1.88000000
    8 H                    1.0000     1.88000000     2.97000000     1.88000000
    9 H                    1.0000    -1.88000000    -1.88000000     2.97000000
   10 H                    1.0000    -2.97000000    -1.88000000     1.88000000
   11 H                    1.0000    -1.88000000    -2.97000000     1.88000000
   12 H                    1.0000     1.88000000    -1.88000000    -2.97000000
   13 H                    1.0000     2.97000000    -1.88000000    -1.88000000
   14 H                    1.0000     1.88000000    -2.97000000    -1.88000000
   15 H                    1.0000    -1.88000000     1.88000000    -2.97000000
   16 H                    1.0000    -2.97000000     1.88000000    -1.88000000
   17 H                    1.0000    -1.88000000     2.97000000    -1.88000000

      Atomic Mass 
      ----------- 

      Si                27.976930
      C                 12.000000
      H                  1.007825


 Effective nuclear repulsion energy (a.u.)     161.3764659796

            Nuclear Dipole moment (a.u.) 
            ----------------------------
        X                 Y               Z
 ---------------- ---------------- ----------------
    -0.0000000000    -0.0000000000    -0.0000000000

      Symmetry information
      --------------------

 Group name              Td       
 Group number             42
 Group order              24
 No. of unique centers     3

      Symmetry unique atoms

     1    2    6



                                Z-matrix (autoz)
                                -------- 

 Units are Angstrom for bonds and degrees for angles

      Type          Name      I     J     K     L     M      Value
      ----------- --------  ----- ----- ----- ----- ----- ----------
    1 Stretch                  1     2                       3.25626
    2 Stretch                  1     3                       3.25626
    3 Stretch                  1     4                       3.25626
    4 Stretch                  1     5                       3.25626
    5 Stretch                  2     6                       1.09000
    6 Stretch                  2     7                       1.09000
    7 Stretch                  2     8                       1.09000
    8 Stretch                  3     9                       1.09000
    9 Stretch                  3    10                       1.09000
   10 Stretch                  3    11                       1.09000
   11 Stretch                  4    12                       1.09000
   12 Stretch                  4    13                       1.09000
   13 Stretch                  4    14                       1.09000
   14 Stretch                  5    15                       1.09000
   15 Stretch                  5    16                       1.09000
   16 Stretch                  5    17                       1.09000
   17 Bend                     1     2     6               125.26439
   18 Bend                     1     2     7               125.26439
   19 Bend                     1     2     8               125.26439
   20 Bend                     1     3     9               125.26439
   21 Bend                     1     3    10               125.26439
   22 Bend                     1     3    11               125.26439
   23 Bend                     1     4    12               125.26439
   24 Bend                     1     4    13               125.26439
   25 Bend                     1     4    14               125.26439
   26 Bend                     1     5    15               125.26439
   27 Bend                     1     5    16               125.26439
   28 Bend                     1     5    17               125.26439
   29 Bend                     2     1     3               109.47122
   30 Bend                     2     1     4               109.47122
   31 Bend                     2     1     5               109.47122
   32 Bend                     3     1     4               109.47122
   33 Bend                     3     1     5               109.47122
   34 Bend                     4     1     5               109.47122
   35 Bend                     6     2     7                90.00000
   36 Bend                     6     2     8                90.00000
   37 Bend                     7     2     8                90.00000
   38 Bend                     9     3    10                90.00000
   39 Bend                     9     3    11                90.00000
   40 Bend                    10     3    11                90.00000
   41 Bend                    12     4    13                90.00000
   42 Bend                    12     4    14                90.00000
   43 Bend                    13     4    14                90.00000
   44 Bend                    15     5    16                90.00000
   45 Bend                    15     5    17                90.00000
   46 Bend                    16     5    17                90.00000
   47 Torsion                  2     1     3     9           0.00000
   48 Torsion                  2     1     3    10         120.00000
   49 Torsion                  2     1     3    11        -120.00000
   50 Torsion                  2     1     4    12        -120.00000
   51 Torsion                  2     1     4    13           0.00000
   52 Torsion                  2     1     4    14         120.00000
   53 Torsion                  2     1     5    15         120.00000
   54 Torsion                  2     1     5    16        -120.00000
   55 Torsion                  2     1     5    17          -0.00000
   56 Torsion                  3     1     2     6           0.00000
   57 Torsion                  3     1     2     7         120.00000
   58 Torsion                  3     1     2     8        -120.00000
   59 Torsion                  3     1     4    12         120.00000
   60 Torsion                  3     1     4    13        -120.00000
   61 Torsion                  3     1     4    14          -0.00000
   62 Torsion                  3     1     5    15        -120.00000
   63 Torsion                  3     1     5    16          -0.00000
   64 Torsion                  3     1     5    17         120.00000
   65 Torsion                  4     1     2     6        -120.00000
   66 Torsion                  4     1     2     7           0.00000
   67 Torsion                  4     1     2     8         120.00000
   68 Torsion                  4     1     3     9         120.00000
   69 Torsion                  4     1     3    10        -120.00000
   70 Torsion                  4     1     3    11           0.00000
   71 Torsion                  4     1     5    15          -0.00000
   72 Torsion                  4     1     5    16         120.00000
   73 Torsion                  4     1     5    17        -120.00000
   74 Torsion                  5     1     2     6         120.00000
   75 Torsion                  5     1     2     7        -120.00000
   76 Torsion                  5     1     2     8           0.00000
   77 Torsion                  5     1     3     9        -120.00000
   78 Torsion                  5     1     3    10           0.00000
   79 Torsion                  5     1     3    11         120.00000
   80 Torsion                  5     1     4    12           0.00000
   81 Torsion                  5     1     4    13         120.00000
   82 Torsion                  5     1     4    14        -120.00000


            XYZ format geometry
            -------------------
    17
 geometry
 Si                    0.00000000     0.00000000     0.00000000
 C                     1.88000000     1.88000000     1.88000000
 C                    -1.88000000    -1.88000000     1.88000000
 C                     1.88000000    -1.88000000    -1.88000000
 C                    -1.88000000     1.88000000    -1.88000000
 H                     1.88000000     1.88000000     2.97000000
 H                     2.97000000     1.88000000     1.88000000
 H                     1.88000000     2.97000000     1.88000000
 H                    -1.88000000    -1.88000000     2.97000000
 H                    -2.97000000    -1.88000000     1.88000000
 H                    -1.88000000    -2.97000000     1.88000000
 H                     1.88000000    -1.88000000    -2.97000000
 H                     2.97000000    -1.88000000    -1.88000000
 H                     1.88000000    -2.97000000    -1.88000000
 H                    -1.88000000     1.88000000    -2.97000000
 H                    -2.97000000     1.88000000    -1.88000000
 H                    -1.88000000     2.97000000    -1.88000000

 ==============================================================================
                                internuclear distances
 ------------------------------------------------------------------------------
       center one      |      center two      | atomic units |  angstroms
 ------------------------------------------------------------------------------
    6 H                |   2 C                |     2.05980  |     1.09000
    7 H                |   2 C                |     2.05980  |     1.09000
    8 H                |   2 C                |     2.05980  |     1.09000
    9 H                |   3 C                |     2.05980  |     1.09000
   10 H                |   3 C                |     2.05980  |     1.09000
   11 H                |   3 C                |     2.05980  |     1.09000
   12 H                |   4 C                |     2.05980  |     1.09000
   13 H                |   4 C                |     2.05980  |     1.09000
   14 H                |   4 C                |     2.05980  |     1.09000
   15 H                |   5 C                |     2.05980  |     1.09000
   16 H                |   5 C                |     2.05980  |     1.09000
   17 H                |   5 C                |     2.05980  |     1.09000
 ------------------------------------------------------------------------------
                         number of included internuclear distances:         12
 ==============================================================================



 ==============================================================================
                                 internuclear angles
 ------------------------------------------------------------------------------
        center 1       |       center 2       |       center 3       |  degrees
 ------------------------------------------------------------------------------
    6 H                |   2 C                |   7 H                |    90.00
    6 H                |   2 C                |   8 H                |    90.00
    7 H                |   2 C                |   8 H                |    90.00
    9 H                |   3 C                |  10 H                |    90.00
    9 H                |   3 C                |  11 H                |    90.00
   10 H                |   3 C                |  11 H                |    90.00
   12 H                |   4 C                |  13 H                |    90.00
   12 H                |   4 C                |  14 H                |    90.00
   13 H                |   4 C                |  14 H                |    90.00
   15 H                |   5 C                |  16 H                |    90.00
   15 H                |   5 C                |  17 H                |    90.00
   16 H                |   5 C                |  17 H                |    90.00
 ------------------------------------------------------------------------------
                            number of included internuclear angles:         12
 ==============================================================================



  library name resolved from: environment
  library file name is: </home/miroi/miniconda3/envs/mace_env/share/nwchem/libraries/>
  


 Summary of "ao basis" -> "" (cartesian)
 ------------------------------------------------------------------------------
       Tag                 Description            Shells   Functions and Types
 ---------------- ------------------------------  ------  ---------------------
 *                          6-311G**                  on all atoms 


                              NWChem Property Module
                              ----------------------


  itol2e modified to match energy
  convergence criterion.

                                 NWChem DFT Module
                                 -----------------


                      Basis "ao basis" -> "ao basis" (cartesian)
                      -----
  Si (Silicon)
  ------------
            Exponent  Coefficients 
       -------------- ---------------------------------------------------------
  1 S  6.93792300E+04  0.000757
  1 S  1.03549400E+04  0.005932
  1 S  2.33387960E+03  0.031088
  1 S  6.57142950E+02  0.124967
  1 S  2.14301130E+02  0.386897
  1 S  7.76291680E+01  0.554888

  2 S  7.76291680E+01  0.177881
  2 S  3.06308070E+01  0.627765
  2 S  1.28012950E+01  0.247623

  3 S  3.92686600E+00  1.000000

  4 S  1.45234300E+00  1.000000

  5 S  2.56234000E-01  1.000000

  6 S  9.42790000E-02  1.000000

  7 P  3.35483190E+02  0.008866
  7 P  7.89003660E+01  0.068299
  7 P  2.49881500E+01  0.290958
  7 P  9.21971100E+00  0.732117

  8 P  3.62114000E+00  0.619879
  8 P  1.45131000E+00  0.439148

  9 P  5.04977000E-01  1.000000

 10 P  1.86317000E-01  1.000000

 11 P  6.54320000E-02  1.000000

 12 D  4.50000000E-01  1.000000

  C (Carbon)
  ----------
            Exponent  Coefficients 
       -------------- ---------------------------------------------------------
  1 S  4.56324000E+03  0.001967
  1 S  6.82024000E+02  0.015231
  1 S  1.54973000E+02  0.076127
  1 S  4.44553000E+01  0.260801
  1 S  1.30290000E+01  0.616462
  1 S  1.82773000E+00  0.221006

  2 S  2.09642000E+01  0.114660
  2 S  4.80331000E+00  0.919999
  2 S  1.45933000E+00 -0.003031

  3 P  2.09642000E+01  0.040249
  3 P  4.80331000E+00  0.237594
  3 P  1.45933000E+00  0.815854

  4 S  4.83456000E-01  1.000000

  5 P  4.83456000E-01  1.000000

  6 S  1.45585000E-01  1.000000

  7 P  1.45585000E-01  1.000000

  8 D  6.26000000E-01  1.000000

  H (Hydrogen)
  ------------
            Exponent  Coefficients 
       -------------- ---------------------------------------------------------
  1 S  3.38650000E+01  0.025494
  1 S  5.09479000E+00  0.190373
  1 S  1.15879000E+00  0.852161

  2 S  3.25840000E-01  1.000000

  3 S  1.02741000E-01  1.000000

  4 P  7.50000000E-01  1.000000



 Summary of "ao basis" -> "ao basis" (cartesian)
 ------------------------------------------------------------------------------
       Tag                 Description            Shells   Functions and Types
 ---------------- ------------------------------  ------  ---------------------
 Si                         6-311G**                12       27   6s5p1d
 C                          6-311G**                 8       19   4s3p1d
 H                          6-311G**                 4        6   3s1p




 Summary of "ao basis" -> "ao basis" (cartesian)
 ------------------------------------------------------------------------------
       Tag                 Description            Shells   Functions and Types
 ---------------- ------------------------------  ------  ---------------------
 Si                         6-311G**                12       27   6s5p1d
 C                          6-311G**                 8       19   4s3p1d
 H                          6-311G**                 4        6   3s1p


  Caching 1-el integrals 
  itol2e modified to match energy
  convergence criterion.

            General Information
            -------------------
          SCF calculation type: DFT
          Wavefunction type:  closed shell.
          No. of atoms     :    17
          No. of electrons :    50
           Alpha electrons :    25
            Beta electrons :    25
          Charge           :     0
          Spin multiplicity:     1
          Use of symmetry is: off; symmetry adaption is: off
          Maximum number of iterations:  50
          AO basis - number of functions:   175
                     number of shells:    92
          Convergence on energy requested:  1.00D-07
          Convergence on density requested:  1.00D-06
          Convergence on gradient requested:  5.00D-04

              XC Information
              --------------
                         PBE0 Method XC Functional
                     Hartree-Fock (Exact) Exchange  0.250          
          PerdewBurkeErnzerhof Exchange Functional  0.750          
            Perdew 1991 LDA Correlation Functional  1.000 local    
           PerdewBurkeErnz. Correlation Functional  1.000 non-local

             Grid Information
             ----------------
          Grid used for XC integration:  fine      
          Radial quadrature: Mura-Knowles        
          Angular quadrature: Lebedev. 
          Tag              B.-S. Rad. Rad. Pts. Rad. Cut. Ang. Pts.
          ---              ---------- --------- --------- ---------
          Si                  1.10      123          12.0       770
          C                   0.70       70          15.0       590
          H                   0.35       60          16.0       590
          Grid pruning is: on 
          Number of quadrature shells:  1123
          Spatial weights used:  Erf1

          Convergence Information
          -----------------------
          Convergence aids based upon iterative change in 
          total energy or number of iterations. 
          Levelshifting, if invoked, occurs when the 
          HOMO/LUMO gap drops below (HL_TOL):  1.00D-02
          DIIS, if invoked, will attempt to extrapolate 
          using up to (NFOCK): 10 stored Fock matrices.

                    Damping( 0%)  Levelshifting(0.5)       DIIS
                  --------------- ------------------- ---------------
          dE  on:    start            ASAP                start   
          dE off:    2 iters         50 iters            50 iters 


      Screening Tolerance Information
      -------------------------------
          Density screening/tol_rho:  1.00D-11
          AO Gaussian exp screening on grid/accAOfunc:  16
          CD Gaussian exp screening on grid/accCDfunc:  20
          XC Gaussian exp screening on grid/accXCfunc:  20
          Schwarz screening/accCoul:  1.00D-08


      Superposition of Atomic Density Guess
      -------------------------------------

 Sum of atomic energies:        -445.50851803

      Non-variational initial energy
      ------------------------------

 Total energy =    -446.833426
 1-e energy   =    -927.859729
 2-e energy   =     319.649837
 HOMO         =      -0.298294
 LUMO         =      -0.259024

   Time after variat. SCF:      0.6
   Time prior to 1st pass:      0.6

 Grid_pts file          = ./tms_nmr.gridpts.0
 Record size in doubles =  12289        No. of grid_pts per rec  =   3070
 Max. records in memory =    311        Max. recs in file   = *********

 Grid integrated density:      50.000008120814
 Requested integration accuracy:   0.10E-06

           Memory utilization after 1st SCF pass: 
           Heap Space remaining (MW):        0.00                 359
          Stack Space remaining (MW):       26.21            26212972

   convergence    iter        energy       DeltaE   RMS-Dens  Diis-err    time
 ---------------- ----- ----------------- --------- --------- ---------  ------
 d= 0,ls=0.0,diis     1   -448.0267938767 -6.09D+02  1.49D-02  1.02D+00     3.6
 Grid integrated density:      50.000018756206
 Requested integration accuracy:   0.10E-06
 d= 0,ls=0.0,diis     2   -446.4039893400  1.62D+00  1.15D-02  7.13D+00     6.1
 Grid integrated density:      50.000011460896
 Requested integration accuracy:   0.10E-06
 d= 0,ls=0.0,diis     3   -448.2174415241 -1.81D+00  4.49D-04  1.75D-02     8.6
 Grid integrated density:      50.000012358806
 Requested integration accuracy:   0.10E-06
 d= 0,ls=0.0,diis     4   -448.2200026394 -2.56D-03  3.60D-04  1.48D-03    11.1
 Grid integrated density:      50.000013490080
 Requested integration accuracy:   0.10E-06
 d= 0,ls=0.0,diis     5   -448.2204151033 -4.12D-04  7.90D-05  2.40D-04    14.2
 Grid integrated density:      50.000013478152
 Requested integration accuracy:   0.10E-06
  Resetting Diis
 d= 0,ls=0.0,diis     6   -448.2204734566 -5.84D-05  1.26D-05  1.74D-05    17.3
 Grid integrated density:      50.000013461006
 Requested integration accuracy:   0.10E-06
 d= 0,ls=0.0,diis     7   -448.2204765391 -3.08D-06  9.20D-06  2.43D-07    20.3
 Grid integrated density:      50.000013455996
 Requested integration accuracy:   0.10E-06
 d= 0,ls=0.0,diis     8   -448.2204762350  3.04D-07  6.14D-06  1.51D-06    23.4
 Grid integrated density:      50.000013463758
 Requested integration accuracy:   0.10E-06
 d= 0,ls=0.0,diis     9   -448.2204766057 -3.71D-07  2.11D-06  7.00D-08    26.5
 Grid integrated density:      50.000013464102
 Requested integration accuracy:   0.10E-06
 d= 0,ls=0.0,diis    10   -448.2204766048  9.56D-10  1.19D-06  6.88D-08    29.6
 Grid integrated density:      50.000013463646
 Requested integration accuracy:   0.10E-06
 d= 0,ls=0.0,diis    11   -448.2204766195 -1.47D-08  1.84D-07  1.38D-09    32.6


         Total DFT energy =     -448.220476619467
      One electron energy =     -931.411367235972
           Coulomb energy =      367.944628737769
    Exchange-Corr. energy =      -46.130204100846
 Nuclear repulsion energy =      161.376465979583

 Numeric. integr. density =       50.000013463646

     Total iterative time =     31.9s



                       DFT Final Molecular Orbital Analysis
                       ------------------------------------

 Vector    1  Occ=2.000000D+00  E=-6.640796D+01
              MO Center= -2.7D-13, -4.7D-14,  3.3D-14, r^2= 4.7D-03
   Bfn.  Coefficient  Atom+Function         Bfn.  Coefficient  Atom+Function  
  ----- ------------  ---------------      ----- ------------  ---------------
     2      0.646362   1 Si s                 1      0.417847   1 Si s         

 Vector    2  Occ=2.000000D+00  E=-1.024155D+01
              MO Center=  1.6D+00,  8.9D-01,  1.0D+00, r^2= 6.2D+00
   Bfn.  Coefficient  Atom+Function         Bfn.  Coefficient  Atom+Function  
  ----- ------------  ---------------      ----- ------------  ---------------
    28      0.478384   2 C  s                29      0.390422   2 C  s         
    66     -0.259867   4 C  s                67     -0.212085   4 C  s         
    47     -0.126938   3 C  s                48     -0.103597   3 C  s         
    85     -0.074634   5 C  s                86     -0.060911   5 C  s         

 Vector    3  Occ=2.000000D+00  E=-1.024155D+01
              MO Center=  7.4D-02, -1.6D+00, -8.4D-02, r^2= 7.9D+00
   Bfn.  Coefficient  Atom+Function         Bfn.  Coefficient  Atom+Function  
  ----- ------------  ---------------      ----- ------------  ---------------
    66     -0.394547   4 C  s                47      0.377143   3 C  s         
    67     -0.322001   4 C  s                48      0.307797   3 C  s         
    85      0.102498   5 C  s                28     -0.098261   2 C  s         
    86      0.083651   5 C  s                29     -0.080193   2 C  s         

 Vector    4  Occ=2.000000D+00  E=-1.024155D+01
              MO Center= -1.6D+00,  7.5D-01, -8.9D-01, r^2= 6.7D+00
   Bfn.  Coefficient  Atom+Function         Bfn.  Coefficient  Atom+Function  
  ----- ------------  ---------------      ----- ------------  ---------------
    85      0.466062   5 C  s                86      0.380366   5 C  s         
    47     -0.280877   3 C  s                48     -0.229231   3 C  s         
    66     -0.129446   4 C  s                67     -0.105644   4 C  s         
    28     -0.072135   2 C  s                29     -0.058871   2 C  s         

 Vector    5  Occ=2.000000D+00  E=-1.024155D+01
              MO Center= -7.8D-02,  1.2D-03, -4.6D-02, r^2= 1.1D+01
   Bfn.  Coefficient  Atom+Function         Bfn.  Coefficient  Atom+Function  
  ----- ------------  ---------------      ----- ------------  ---------------
    85      0.291163   5 C  s                47      0.284296   3 C  s         
    66      0.279484   4 C  s                28      0.272684   2 C  s         
    86      0.237623   5 C  s                48      0.232018   3 C  s         
    67      0.228092   4 C  s                29      0.222541   2 C  s         

 Vector    6  Occ=2.000000D+00  E=-5.475608D+00
              MO Center= -8.7D-11, -4.5D-11,  6.6D-11, r^2= 1.1D-01
   Bfn.  Coefficient  Atom+Function         Bfn.  Coefficient  Atom+Function  
  ----- ------------  ---------------      ----- ------------  ---------------
     4      0.551520   1 Si s                 3      0.545372   1 Si s         
     2     -0.305523   1 Si s                 1     -0.117154   1 Si s         
     5      0.093877   1 Si s         

 Vector    7  Occ=2.000000D+00  E=-3.808993D+00
              MO Center= -7.9D-06,  8.6D-06,  7.8D-06, r^2= 1.0D-01
   Bfn.  Coefficient  Atom+Function         Bfn.  Coefficient  Atom+Function  
  ----- ------------  ---------------      ----- ------------  ---------------
    12     -0.412762   1 Si pz               10      0.407814   1 Si px        
    11     -0.375768   1 Si py                9     -0.240934   1 Si pz        
     7      0.238046   1 Si px                8     -0.219340   1 Si py        
    15     -0.032773   1 Si pz               13      0.032381   1 Si px        
    14     -0.029836   1 Si py        

 Vector    8  Occ=2.000000D+00  E=-3.808993D+00
              MO Center= -4.1D-06, -9.1D-06, -7.1D-06, r^2= 1.0D-01
   Bfn.  Coefficient  Atom+Function         Bfn.  Coefficient  Atom+Function  
  ----- ------------  ---------------      ----- ------------  ---------------
    10      0.557619   1 Si px                7      0.325488   1 Si px        
    12      0.322267   1 Si pz               11      0.251180   1 Si py        
     9      0.188111   1 Si pz                8      0.146616   1 Si py        
    13      0.044275   1 Si px               15      0.025588   1 Si pz        

 Vector    9  Occ=2.000000D+00  E=-3.808993D+00
              MO Center=  1.2D-05,  5.8D-07, -6.7D-07, r^2= 1.0D-01
   Bfn.  Coefficient  Atom+Function         Bfn.  Coefficient  Atom+Function  
  ----- ------------  ---------------      ----- ------------  ---------------
    11      0.523062   1 Si py               12     -0.451285   1 Si pz        
     8      0.305317   1 Si py                9     -0.263420   1 Si pz        
    14      0.041531   1 Si py               15     -0.035832   1 Si pz        
    10      0.025200   1 Si px        

 Vector   10  Occ=2.000000D+00  E=-7.142698D-01
              MO Center=  3.3D-04, -2.1D-06,  1.9D-04, r^2= 1.4D+01
   Bfn.  Coefficient  Atom+Function         Bfn.  Coefficient  Atom+Function  
  ----- ------------  ---------------      ----- ------------  ---------------
    33      0.210775   2 C  s                52      0.210742   3 C  s         
    71      0.210756   4 C  s                90      0.210723   5 C  s         
    37      0.132738   2 C  s                56      0.132717   3 C  s         
    75      0.132726   4 C  s                94      0.132705   5 C  s         
    29     -0.080343   2 C  s                48     -0.080330   3 C  s         

 Vector   11  Occ=2.000000D+00  E=-7.141371D-01
              MO Center=  1.8D+00,  9.1D-01,  1.1D+00, r^2= 8.8D+00
   Bfn.  Coefficient  Atom+Function         Bfn.  Coefficient  Atom+Function  
  ----- ------------  ---------------      ----- ------------  ---------------
    33      0.353332   2 C  s                37      0.222994   2 C  s         
    71     -0.202737   4 C  s                29     -0.134765   2 C  s         
    75     -0.127950   4 C  s               105      0.101258   6 H  s         
   111      0.101290   7 H  s               117      0.101245   8 H  s         
    52     -0.096610   3 C  s                28     -0.086028   2 C  s         

 Vector   12  Occ=2.000000D+00  E=-7.141371D-01
              MO Center=  5.3D-03, -1.8D+00, -9.3D-03, r^2= 1.1D+01
   Bfn.  Coefficient  Atom+Function         Bfn.  Coefficient  Atom+Function  
  ----- ------------  ---------------      ----- ------------  ---------------
    52      0.288118   3 C  s                71     -0.289193   4 C  s         
    56      0.181836   3 C  s                75     -0.182515   4 C  s         
    48     -0.109892   3 C  s                67      0.110302   4 C  s         
   123      0.082567   9 H  s               153     -0.082941  14 H  s         
   129      0.082521  10 H  s               135      0.082633  11 H  s         

 Vector   13  Occ=2.000000D+00  E=-7.141371D-01
              MO Center= -1.8D+00,  9.1D-01, -1.0D+00, r^2= 8.8D+00
   Bfn.  Coefficient  Atom+Function         Bfn.  Coefficient  Atom+Function  
  ----- ------------  ---------------      ----- ------------  ---------------
    90      0.353382   5 C  s                94      0.223025   5 C  s         
    52     -0.203240   3 C  s                86     -0.134785   5 C  s         
    56     -0.128268   3 C  s               159      0.101271  15 H  s         
   165      0.101305  16 H  s               171      0.101259  17 H  s         
    71     -0.094399   4 C  s                85     -0.086040   5 C  s         

 Vector   14  Occ=2.000000D+00  E=-4.902745D-01
              MO Center=  1.9D-08,  1.3D-10,  9.5D-09, r^2= 1.8D+00
   Bfn.  Coefficient  Atom+Function         Bfn.  Coefficient  Atom+Function  
  ----- ------------  ---------------      ----- ------------  ---------------
     5      0.677332   1 Si s                 6      0.447115   1 Si s         
     4     -0.339833   1 Si s                 3     -0.205753   1 Si s         
     2      0.089305   1 Si s                 1      0.032412   1 Si s         

 Vector   15  Occ=2.000000D+00  E=-3.742728D-01
              MO Center=  7.5D-01, -3.8D-01,  4.4D-01, r^2= 1.3D+01
   Bfn.  Coefficient  Atom+Function         Bfn.  Coefficient  Atom+Function  
  ----- ------------  ---------------      ----- ------------  ---------------
   117      0.149537   8 H  s                35      0.148295   2 C  py        
   141      0.143687  12 H  s                74     -0.142573   4 C  pz        
   129      0.128177  10 H  s                53     -0.127402   3 C  px        
   153     -0.104119  14 H  s                73      0.103004   4 C  py        
    31      0.100490   2 C  py               39      0.100533   2 C  py        

 Vector   16  Occ=2.000000D+00  E=-3.742728D-01
              MO Center=  4.9D-03,  7.5D-01, -6.4D-03, r^2= 1.3D+01
   Bfn.  Coefficient  Atom+Function         Bfn.  Coefficient  Atom+Function  
  ----- ------------  ---------------      ----- ------------  ---------------
   111      0.139437   7 H  s               165     -0.139959  16 H  s         
    34      0.138039   2 C  px               91      0.138558   5 C  px        
   105     -0.117723   6 H  s                36     -0.116810   2 C  pz        
   159      0.117099  15 H  s                93     -0.116187   5 C  pz        
    95      0.094126   5 C  px               30      0.093578   2 C  px        

 Vector   17  Occ=2.000000D+00  E=-3.742728D-01
              MO Center= -7.5D-01, -3.7D-01, -4.3D-01, r^2= 1.3D+01
   Bfn.  Coefficient  Atom+Function         Bfn.  Coefficient  Atom+Function  
  ----- ------------  ---------------      ----- ------------  ---------------
   171      0.149430  17 H  s                92      0.148187   5 C  py        
   123      0.143613   9 H  s                55      0.142497   3 C  pz        
   147      0.127604  13 H  s                72      0.126838   4 C  px        
   135     -0.104877  11 H  s                54      0.103758   3 C  py        
    88      0.100417   5 C  py               96      0.100461   5 C  py        

 Vector   18  Occ=2.000000D+00  E=-3.742288D-01
              MO Center= -6.1D-04, -8.0D-08, -4.8D-04, r^2= 1.4D+01
   Bfn.  Coefficient  Atom+Function         Bfn.  Coefficient  Atom+Function  
  ----- ------------  ---------------      ----- ------------  ---------------
    36      0.114449   2 C  pz               55      0.114469   3 C  pz        
    74     -0.114478   4 C  pz               93     -0.114498   5 C  pz        
   105      0.114375   6 H  s               123      0.114396   9 H  s         
   141      0.114405  12 H  s               159      0.114425  15 H  s         
    34     -0.099354   2 C  px               53      0.099398   3 C  px        

 Vector   19  Occ=2.000000D+00  E=-3.742288D-01
              MO Center= -3.1D-04,  4.8D-06, -5.4D-05, r^2= 1.4D+01
   Bfn.  Coefficient  Atom+Function         Bfn.  Coefficient  Atom+Function  
  ----- ------------  ---------------      ----- ------------  ---------------
    35      0.123461   2 C  py               54     -0.123475   3 C  py        
    73     -0.123465   4 C  py               92      0.123480   5 C  py        
   117      0.123383   8 H  s               135      0.123396  11 H  s         
   153      0.123387  14 H  s               171      0.123401  17 H  s         
    39      0.084914   2 C  py               58     -0.084923   3 C  py        

 Vector   20  Occ=2.000000D+00  E=-3.737059D-01
              MO Center=  1.0D+00, -5.1D-01,  5.9D-01, r^2= 1.2D+01
   Bfn.  Coefficient  Atom+Function         Bfn.  Coefficient  Atom+Function  
  ----- ------------  ---------------      ----- ------------  ---------------
   111      0.144660   7 H  s               147     -0.144663  13 H  s         
    34      0.142367   2 C  px               72     -0.142370   4 C  px        
   105     -0.116095   6 H  s               123      0.116099   9 H  s         
    36     -0.114254   2 C  pz               55      0.114258   3 C  pz        
   135     -0.105839  11 H  s               153      0.105837  14 H  s         

 Vector   21  Occ=2.000000D+00  E=-3.737059D-01
              MO Center= -5.0D-03,  1.0D+00,  8.4D-03, r^2= 1.3D+01
   Bfn.  Coefficient  Atom+Function         Bfn.  Coefficient  Atom+Function  
  ----- ------------  ---------------      ----- ------------  ---------------
   117      0.149783   8 H  s               171     -0.149791  17 H  s         
    35      0.147408   2 C  py               92     -0.147417   5 C  py        
    31      0.100004   2 C  py               39      0.100109   2 C  py        
    88     -0.100010   5 C  py               96     -0.100115   5 C  py        
   116      0.096604   8 H  s               170     -0.096610  17 H  s         

 Vector   22  Occ=2.000000D+00  E=-3.737059D-01
              MO Center= -1.0D+00, -5.2D-01, -6.0D-01, r^2= 1.2D+01
   Bfn.  Coefficient  Atom+Function         Bfn.  Coefficient  Atom+Function  
  ----- ------------  ---------------      ----- ------------  ---------------
   129     -0.144349  10 H  s               165      0.144352  16 H  s         
    53      0.142061   3 C  px               91     -0.142064   5 C  px        
   141      0.116673  12 H  s               159     -0.116677  15 H  s         
    74     -0.114824   4 C  pz               93      0.114828   5 C  pz        
   135      0.105995  11 H  s               153     -0.105994  14 H  s         

 Vector   23  Occ=2.000000D+00  E=-2.723676D-01
              MO Center=  1.1D+00,  5.7D-01,  6.6D-01, r^2= 5.9D+00
   Bfn.  Coefficient  Atom+Function         Bfn.  Coefficient  Atom+Function  
  ----- ------------  ---------------      ----- ------------  ---------------
    37      0.235448   2 C  s                17      0.179049   1 Si py        
    39     -0.172714   2 C  py               40     -0.172045   2 C  pz        
    38     -0.170286   2 C  px               33      0.156525   2 C  s         
    18      0.154637   1 Si pz               75     -0.135049   4 C  s         
    35     -0.132229   2 C  py               36     -0.131597   2 C  pz        

 Vector   24  Occ=2.000000D+00  E=-2.723676D-01
              MO Center= -1.8D-03, -1.1D+00,  3.1D-03, r^2= 6.7D+00
   Bfn.  Coefficient  Atom+Function         Bfn.  Coefficient  Atom+Function  
  ----- ------------  ---------------      ----- ------------  ---------------
    16      0.218465   1 Si px               56     -0.192612   3 C  s         
    75      0.192232   4 C  s                57     -0.143264   3 C  px        
    76     -0.142993   4 C  px               59      0.140789   3 C  pz        
    78      0.140519   4 C  pz               58     -0.137289   3 C  py        
    77      0.136999   4 C  py               18     -0.128143   1 Si pz        

 Vector   25  Occ=2.000000D+00  E=-2.723676D-01
              MO Center= -1.1D+00,  5.7D-01, -6.7D-01, r^2= 5.9D+00
   Bfn.  Coefficient  Atom+Function         Bfn.  Coefficient  Atom+Function  
  ----- ------------  ---------------      ----- ------------  ---------------
    94      0.235526   5 C  s                17      0.179134   1 Si py        
    96     -0.172772   5 C  py               97      0.172093   5 C  pz        
    95      0.170352   5 C  px               90      0.156577   5 C  s         
    18     -0.154319   1 Si pz               56     -0.134712   3 C  s         
    92     -0.132274   5 C  py               93      0.131631   5 C  pz        

 Vector   26  Occ=0.000000D+00  E=-2.034340D-01
              MO Center= -1.9D-07, -9.4D-09, -1.3D-07, r^2= 9.6D+00
   Bfn.  Coefficient  Atom+Function         Bfn.  Coefficient  Atom+Function  
  ----- ------------  ---------------      ----- ------------  ---------------
     5      0.287214   1 Si s                37     -0.199875   2 C  s         
    56     -0.199875   3 C  s                75     -0.199875   4 C  s         
    94     -0.199875   5 C  s                33     -0.127631   2 C  s         
    52     -0.127631   3 C  s                71     -0.127631   4 C  s         
    90     -0.127631   5 C  s                 4     -0.118481   1 Si s         

 Vector   27  Occ=0.000000D+00  E=-1.159192D-01
              MO Center=  3.1D-01,  1.6D-01,  1.9D-01, r^2= 4.4D+00
   Bfn.  Coefficient  Atom+Function         Bfn.  Coefficient  Atom+Function  
  ----- ------------  ---------------      ----- ------------  ---------------
    17      0.370068   1 Si py               18      0.321186   1 Si pz        
    37     -0.289930   2 C  s                20      0.246795   1 Si py        
    21      0.214196   1 Si pz               16      0.198091   1 Si px        
    75      0.160773   4 C  s                14      0.155850   1 Si py        
    33     -0.152482   2 C  s                15      0.135264   1 Si pz        

 Vector   28  Occ=0.000000D+00  E=-1.159192D-01
              MO Center=  6.7D-03, -3.2D-01, -1.1D-02, r^2= 4.4D+00
   Bfn.  Coefficient  Atom+Function         Bfn.  Coefficient  Atom+Function  
  ----- ------------  ---------------      ----- ------------  ---------------
    16      0.454653   1 Si px               19      0.303205   1 Si px        
    18     -0.269350   1 Si pz               75     -0.239156   4 C  s         
    56      0.232899   3 C  s                13      0.191472   1 Si px        
    21     -0.179628   1 Si pz               10     -0.139119   1 Si px        
    71     -0.125778   4 C  s                52      0.122488   3 C  s         

 Vector   29  Occ=0.000000D+00  E=-1.159192D-01
              MO Center= -3.1D-01,  1.5D-01, -1.8D-01, r^2= 4.4D+00
   Bfn.  Coefficient  Atom+Function         Bfn.  Coefficient  Atom+Function  
  ----- ------------  ---------------      ----- ------------  ---------------
    17      0.377238   1 Si py               18     -0.321933   1 Si pz        
    94     -0.287513   5 C  s                20      0.251577   1 Si py        
    21     -0.214695   1 Si pz               16     -0.182760   1 Si px        
    56      0.168352   3 C  s                14      0.158869   1 Si py        
    90     -0.151210   5 C  s                15     -0.135578   1 Si pz        

 Vector   30  Occ=0.000000D+00  E= 6.485681D-02
              MO Center=  2.2D-06,  1.1D-08,  1.2D-06, r^2= 2.1D+01
   Bfn.  Coefficient  Atom+Function         Bfn.  Coefficient  Atom+Function  
  ----- ------------  ---------------      ----- ------------  ---------------
    37      0.977793   2 C  s                56      0.977792   3 C  s         
    75      0.977793   4 C  s                94      0.977792   5 C  s         
   106     -0.457367   6 H  s               112     -0.457367   7 H  s         
   118     -0.457367   8 H  s               124     -0.457367   9 H  s         
   130     -0.457367  10 H  s               136     -0.457367  11 H  s         

 Vector   31  Occ=0.000000D+00  E= 7.489874D-02
              MO Center=  2.0D+00,  9.5D-01,  1.1D+00, r^2= 1.5D+01
   Bfn.  Coefficient  Atom+Function         Bfn.  Coefficient  Atom+Function  
  ----- ------------  ---------------      ----- ------------  ---------------
    37      1.615939   2 C  s                75     -0.966725   4 C  s         
   118     -0.783983   8 H  s               106     -0.771462   6 H  s         
   112     -0.735207   7 H  s               154      0.505879  14 H  s         
   142      0.493358  12 H  s                56     -0.419162   3 C  s         
   148      0.371131  13 H  s                39      0.316172   2 C  py        

 Vector   32  Occ=0.000000D+00  E= 7.489875D-02
              MO Center= -5.5D-02, -2.0D+00,  9.5D-02, r^2= 1.8D+01
   Bfn.  Coefficient  Atom+Function         Bfn.  Coefficient  Atom+Function  
  ----- ------------  ---------------      ----- ------------  ---------------
    56      1.349007   3 C  s                75     -1.302558   4 C  s         
   130     -0.689387  10 H  s               148      0.669490  13 H  s         
   124     -0.641928   9 H  s               142      0.622031  12 H  s         
   136     -0.580951  11 H  s               154      0.554902  14 H  s         
    37     -0.381610   2 C  s                94      0.335162   5 C  s         

 Vector   33  Occ=0.000000D+00  E= 7.489875D-02
              MO Center= -2.0D+00,  1.0D+00, -1.2D+00, r^2= 1.5D+01
   Bfn.  Coefficient  Atom+Function         Bfn.  Coefficient  Atom+Function  
  ----- ------------  ---------------      ----- ------------  ---------------
    94      1.632658   5 C  s                56     -0.913954   3 C  s         
   172     -0.789480  17 H  s               160     -0.777902  15 H  s         
   166     -0.746970  16 H  s               136      0.481608  11 H  s         
   124      0.470030   9 H  s                75     -0.446780   4 C  s         
   130      0.343924  10 H  s                96      0.318393   5 C  py        

 Vector   34  Occ=0.000000D+00  E= 1.365984D-01
              MO Center=  1.1D-05, -2.8D-08,  2.2D-06, r^2= 2.1D+01
   Bfn.  Coefficient  Atom+Function         Bfn.  Coefficient  Atom+Function  
  ----- ------------  ---------------      ----- ------------  ---------------
   112      1.029689   7 H  s               130      1.029685  10 H  s         
   148      1.029688  13 H  s               166      1.029684  16 H  s         
   118     -0.676604   8 H  s               136     -0.676601  11 H  s         
   154     -0.676603  14 H  s               172     -0.676601  17 H  s         
    38     -0.411298   2 C  px               57      0.411297   3 C  px        

 Vector   35  Occ=0.000000D+00  E= 1.365984D-01
              MO Center=  3.1D-06,  2.6D-08,  6.1D-06, r^2= 2.1D+01
   Bfn.  Coefficient  Atom+Function         Bfn.  Coefficient  Atom+Function  
  ----- ------------  ---------------      ----- ------------  ---------------
   106      0.985128   6 H  s               124      0.985127   9 H  s         
   142      0.985126  12 H  s               160      0.985124  15 H  s         
   118     -0.798345   8 H  s               136     -0.798344  11 H  s         
   154     -0.798343  14 H  s               172     -0.798342  17 H  s         
    40     -0.393499   2 C  pz               59     -0.393498   3 C  pz        

 Vector   36  Occ=0.000000D+00  E= 1.393685D-01
              MO Center=  5.6D-01, -2.5D-01,  2.9D-01, r^2= 2.0D+01
   Bfn.  Coefficient  Atom+Function         Bfn.  Coefficient  Atom+Function  
  ----- ------------  ---------------      ----- ------------  ---------------
   118      1.239729   8 H  s               142      1.202448  12 H  s         
   130      1.065838  10 H  s               154     -0.882451  14 H  s         
   106     -0.845170   6 H  s               136     -0.542481  11 H  s         
    39     -0.498910   2 C  py               78      0.482227   4 C  pz        
    57      0.421092   3 C  px              166     -0.421431  16 H  s         

 Vector   37  Occ=0.000000D+00  E= 1.393685D-01
              MO Center= -3.7D-03,  5.1D-01,  7.1D-03, r^2= 2.0D+01
   Bfn.  Coefficient  Atom+Function         Bfn.  Coefficient  Atom+Function  
  ----- ------------  ---------------      ----- ------------  ---------------
   112      1.150413   7 H  s               166     -1.143343  16 H  s         
   160      0.960274  15 H  s               106     -0.953200   6 H  s         
   136      0.756691  11 H  s               154     -0.743933  14 H  s         
   130     -0.636700  10 H  s               148      0.629621  13 H  s         
    38     -0.469146   2 C  px               95     -0.466411   5 C  px        

 Vector   38  Occ=0.000000D+00  E= 1.393685D-01
              MO Center= -5.5D-01, -2.6D-01, -2.9D-01, r^2= 2.0D+01
   Bfn.  Coefficient  Atom+Function         Bfn.  Coefficient  Atom+Function  
  ----- ------------  ---------------      ----- ------------  ---------------
   172      1.240353  17 H  s               124      1.206223   9 H  s         
   148      1.073908  13 H  s               136     -0.871154  11 H  s         
   160     -0.837024  15 H  s               154     -0.541868  14 H  s         
    96     -0.498991   5 C  py               59     -0.483717   3 C  pz        
    76     -0.424505   4 C  px              142     -0.422802  12 H  s         

 Vector   39  Occ=0.000000D+00  E= 1.435800D-01
              MO Center=  1.4D+00, -7.3D-01,  8.3D-01, r^2= 1.7D+01
   Bfn.  Coefficient  Atom+Function         Bfn.  Coefficient  Atom+Function  
  ----- ------------  ---------------      ----- ------------  ---------------
   112      1.173411   7 H  s               148     -1.173413  13 H  s         
   106     -0.956964   6 H  s               124      0.956966   9 H  s         
   136     -0.878365  11 H  s               154      0.878364  14 H  s         
    38     -0.497707   2 C  px               76      0.497708   4 C  px        
    40      0.405900   2 C  pz               59     -0.405901   3 C  pz        

 Vector   40  Occ=0.000000D+00  E= 1.435800D-01
              MO Center=  5.9D-02,  1.4D+00, -1.1D-01, r^2= 1.9D+01
   Bfn.  Coefficient  Atom+Function         Bfn.  Coefficient  Atom+Function  
  ----- ------------  ---------------      ----- ------------  ---------------
   118      1.215966   8 H  s               172     -1.215970  17 H  s         
   142     -0.816150  12 H  s               160      0.816151  15 H  s         
   106     -0.748016   6 H  s               124      0.748017   9 H  s         
    39     -0.515757   2 C  py               96      0.515758   5 C  py        
   112     -0.467950   7 H  s               148      0.467950  13 H  s         

 Vector   41  Occ=0.000000D+00  E= 1.435800D-01
              MO Center= -1.4D+00, -6.3D-01, -7.2D-01, r^2= 1.7D+01
   Bfn.  Coefficient  Atom+Function         Bfn.  Coefficient  Atom+Function  
  ----- ------------  ---------------      ----- ------------  ---------------
   130      1.198378  10 H  s               166     -1.198379  16 H  s         
   142     -0.921404  12 H  s               160      0.921406  15 H  s         
   136     -0.842244  11 H  s               154      0.842243  14 H  s         
    57      0.508297   3 C  px               95     -0.508297   5 C  px        
    78     -0.390817   4 C  pz               97      0.390818   5 C  pz        

 Vector   42  Occ=0.000000D+00  E= 1.711424D-01
              MO Center=  4.3D-01, -2.5D-01,  3.2D-01, r^2= 7.5D+00
   Bfn.  Coefficient  Atom+Function         Bfn.  Coefficient  Atom+Function  
  ----- ------------  ---------------      ----- ------------  ---------------
    20      1.079829   1 Si py               21     -0.848682   1 Si pz        
    17     -0.744397   1 Si py               19     -0.631554   1 Si px        
    18      0.585052   1 Si pz               16      0.435371   1 Si px        
    96      0.377407   5 C  py               97     -0.350497   5 C  pz        
    95     -0.325219   5 C  px               94      0.292509   5 C  s         

 Vector   43  Occ=0.000000D+00  E= 1.711424D-01
              MO Center= -5.6D-03,  5.2D-01,  7.4D-03, r^2= 7.6D+00
   Bfn.  Coefficient  Atom+Function         Bfn.  Coefficient  Atom+Function  
  ----- ------------  ---------------      ----- ------------  ---------------
    19      1.204640   1 Si px               21     -0.913138   1 Si pz        
    16     -0.830437   1 Si px               18      0.629486   1 Si pz        
    76      0.349743   4 C  px               57      0.347163   3 C  px        
    78     -0.315807   4 C  pz               59     -0.313227   3 C  pz        
   111     -0.247522   7 H  s               165      0.247109  16 H  s         

 Vector   44  Occ=0.000000D+00  E= 1.711424D-01
              MO Center= -4.3D-01, -2.7D-01, -3.3D-01, r^2= 7.5D+00
   Bfn.  Coefficient  Atom+Function         Bfn.  Coefficient  Atom+Function  
  ----- ------------  ---------------      ----- ------------  ---------------
    20      1.057804   1 Si py               21      0.855026   1 Si pz        
    17     -0.729213   1 Si py               19      0.659646   1 Si px        
    18     -0.589425   1 Si pz               16     -0.454737   1 Si px        
    39      0.376063   2 C  py               40      0.352456   2 C  pz        
    38      0.329710   2 C  px               37      0.293927   2 C  s         

 Vector   45  Occ=0.000000D+00  E= 2.746504D-01
              MO Center=  1.9D-07, -5.1D-09,  4.2D-07, r^2= 1.3D+01
   Bfn.  Coefficient  Atom+Function         Bfn.  Coefficient  Atom+Function  
  ----- ------------  ---------------      ----- ------------  ---------------
   111      0.537411   7 H  s               129      0.537411  10 H  s         
   147      0.537411  13 H  s               165      0.537411  16 H  s         
   117     -0.485476   8 H  s               135     -0.485476  11 H  s         
   153     -0.485476  14 H  s               171     -0.485476  17 H  s         
    38     -0.390321   2 C  px               57      0.390321   3 C  px        

 Vector   46  Occ=0.000000D+00  E= 2.746504D-01
              MO Center=  6.3D-07, -6.2D-09,  4.0D-08, r^2= 1.3D+01
   Bfn.  Coefficient  Atom+Function         Bfn.  Coefficient  Atom+Function  
  ----- ------------  ---------------      ----- ------------  ---------------
   105      0.590564   6 H  s               123      0.590564   9 H  s         
   141      0.590564  12 H  s               159      0.590564  15 H  s         
    40     -0.428926   2 C  pz               59     -0.428926   3 C  pz        
    78      0.428926   4 C  pz               97      0.428926   5 C  pz        
   117     -0.340259   8 H  s               135     -0.340259  11 H  s         

 Vector   47  Occ=0.000000D+00  E= 2.866128D-01
              MO Center=  5.6D-08, -2.6D-09,  1.7D-08, r^2= 5.4D+00
   Bfn.  Coefficient  Atom+Function         Bfn.  Coefficient  Atom+Function  
  ----- ------------  ---------------      ----- ------------  ---------------
     6      1.801925   1 Si s                 5     -1.565826   1 Si s         
    37      0.262827   2 C  s                56      0.262827   3 C  s         
    75      0.262827   4 C  s                94      0.262827   5 C  s         
     4      0.254924   1 Si s                 3      0.175916   1 Si s         
    22     -0.148468   1 Si dxx              25     -0.148468   1 Si dyy       

 Vector   48  Occ=0.000000D+00  E= 3.032156D-01
              MO Center=  8.3D-01, -4.4D-01,  5.2D-01, r^2= 1.3D+01
   Bfn.  Coefficient  Atom+Function         Bfn.  Coefficient  Atom+Function  
  ----- ------------  ---------------      ----- ------------  ---------------
   111      0.677797   7 H  s               147     -0.677797  13 H  s         
   105     -0.561595   6 H  s               123      0.561595   9 H  s         
   135     -0.503206  11 H  s               153      0.503206  14 H  s         
    38     -0.455885   2 C  px               76      0.455885   4 C  px        
   112     -0.432169   7 H  s               148      0.432169  13 H  s         

 Vector   49  Occ=0.000000D+00  E= 3.032156D-01
              MO Center=  3.7D-02,  8.4D-01, -6.4D-02, r^2= 1.4D+01
   Bfn.  Coefficient  Atom+Function         Bfn.  Coefficient  Atom+Function  
  ----- ------------  ---------------      ----- ------------  ---------------
   117      0.707173   8 H  s               171     -0.707173  17 H  s         
    39     -0.475643   2 C  py               96      0.475643   5 C  py        
   141     -0.469139  12 H  s               159      0.469139  15 H  s         
   118     -0.450900   8 H  s               172      0.450900  17 H  s         
   105     -0.429980   6 H  s               123      0.429981   9 H  s         

 Vector   50  Occ=0.000000D+00  E= 3.032156D-01
              MO Center= -8.6D-01, -4.1D-01, -4.5D-01, r^2= 1.3D+01
   Bfn.  Coefficient  Atom+Function         Bfn.  Coefficient  Atom+Function  
  ----- ------------  ---------------      ----- ------------  ---------------
   129      0.691111  10 H  s               165     -0.691111  16 H  s         
   141     -0.535845  12 H  s               159      0.535845  15 H  s         
   135     -0.497638  11 H  s               153      0.497638  14 H  s         
    57      0.464840   3 C  px               95     -0.464840   5 C  px        
   130     -0.440659  10 H  s               166      0.440659  16 H  s         

 Vector   51  Occ=0.000000D+00  E= 3.644093D-01
              MO Center= -1.9D-01,  2.2D-01,  1.7D-01, r^2= 1.2D+01
   Bfn.  Coefficient  Atom+Function         Bfn.  Coefficient  Atom+Function  
  ----- ------------  ---------------      ----- ------------  ---------------
    21     -0.661104   1 Si pz               19      0.616141   1 Si px        
   159      0.596691  15 H  s               111      0.581722   7 H  s         
   135      0.548980  11 H  s                20     -0.517793   1 Si py        
    18      0.416814   1 Si pz              160     -0.408503  15 H  s         
   112     -0.394895   7 H  s                16     -0.388466   1 Si px        

 Vector   52  Occ=0.000000D+00  E= 3.644093D-01
              MO Center=  1.9D-01, -2.2D-01,  1.2D-01, r^2= 1.2D+01
   Bfn.  Coefficient  Atom+Function         Bfn.  Coefficient  Atom+Function  
  ----- ------------  ---------------      ----- ------------  ---------------
    21      0.804798   1 Si pz              141     -0.632398  12 H  s         
   129     -0.531213  10 H  s                18     -0.507410   1 Si pz        
   117     -0.508133   8 H  s                19      0.500868   1 Si px        
   123      0.451324   9 H  s               142      0.445278  12 H  s         
    20     -0.431542   1 Si py              105      0.422235   6 H  s         

 Vector   53  Occ=0.000000D+00  E= 3.644093D-01
              MO Center= -2.7D-03, -2.3D-03, -2.9D-01, r^2= 1.2D+01
   Bfn.  Coefficient  Atom+Function         Bfn.  Coefficient  Atom+Function  
  ----- ------------  ---------------      ----- ------------  ---------------
    20      0.794015   1 Si py               19      0.674017   1 Si px        
   153     -0.571016  14 H  s               171      0.573653  17 H  s         
   147      0.533703  13 H  s               165     -0.531066  16 H  s         
    17     -0.500612   1 Si py               16     -0.424955   1 Si px        
   154      0.410032  14 H  s               172     -0.411491  17 H  s         

 Vector   54  Occ=0.000000D+00  E= 4.117818D-01
              MO Center=  3.6D-01,  2.0D-01,  2.3D-01, r^2= 7.9D+00
   Bfn.  Coefficient  Atom+Function         Bfn.  Coefficient  Atom+Function  
  ----- ------------  ---------------      ----- ------------  ---------------
    38      0.745130   2 C  px               40      0.712379   2 C  pz        
    37      0.694369   2 C  s                39      0.697237   2 C  py        
    24     -0.664747   1 Si dxz              23     -0.569343   1 Si dxy       
   147      0.554998  13 H  s               111     -0.530321   7 H  s         
    76     -0.495455   4 C  px              123      0.471270   9 H  s         

 Vector   55  Occ=0.000000D+00  E= 4.117818D-01
              MO Center=  6.9D-03, -3.8D-01, -1.1D-02, r^2= 8.0D+00
   Bfn.  Coefficient  Atom+Function         Bfn.  Coefficient  Atom+Function  
  ----- ------------  ---------------      ----- ------------  ---------------
    26      0.806597   1 Si dyz              77      0.660302   4 C  py        
    58     -0.650126   3 C  py               78      0.583776   4 C  pz        
    75     -0.573192   4 C  s               135     -0.573712  11 H  s         
   153      0.572706  14 H  s                59      0.568904   3 C  pz        
    56      0.560328   3 C  s                76     -0.534635   4 C  px        

 Vector   56  Occ=0.000000D+00  E= 4.117818D-01
              MO Center= -3.6D-01,  1.8D-01, -2.2D-01, r^2= 7.9D+00
   Bfn.  Coefficient  Atom+Function         Bfn.  Coefficient  Atom+Function  
  ----- ------------  ---------------      ----- ------------  ---------------
    95      0.743431   5 C  px               97      0.706645   5 C  pz        
    94     -0.689713   5 C  s                96     -0.690219   5 C  py        
    24      0.675046   1 Si dxz              23     -0.571547   1 Si dxy       
   129     -0.559707  10 H  s               165      0.536608  16 H  s         
    57     -0.509724   3 C  px              141     -0.465666  12 H  s         

 Vector   57  Occ=0.000000D+00  E= 5.259592D-01
              MO Center=  6.2D-08, -3.8D-09,  5.9D-08, r^2= 5.1D+00
   Bfn.  Coefficient  Atom+Function         Bfn.  Coefficient  Atom+Function  
  ----- ------------  ---------------      ----- ------------  ---------------
    22      0.769829   1 Si dxx              25     -0.700620   1 Si dyy       
   112     -0.421672   7 H  s               130     -0.421671  10 H  s         
   148     -0.421671  13 H  s               166     -0.421671  16 H  s         
   118      0.383763   8 H  s               136      0.383763  11 H  s         
   154      0.383763  14 H  s               172      0.383763  17 H  s         

 Vector   58  Occ=0.000000D+00  E= 5.259592D-01
              MO Center=  9.0D-08, -3.4D-10,  3.1D-08, r^2= 5.1D+00
   Bfn.  Coefficient  Atom+Function         Bfn.  Coefficient  Atom+Function  
  ----- ------------  ---------------      ----- ------------  ---------------
    27      0.848964   1 Si dzz              25     -0.484418   1 Si dyy       
   106     -0.465018   6 H  s               124     -0.465018   9 H  s         
   142     -0.465018  12 H  s               160     -0.465018  15 H  s         
    22     -0.364546   1 Si dxx             118      0.265339   8 H  s         
   136      0.265339  11 H  s               154      0.265339  14 H  s         

 Vector   59  Occ=0.000000D+00  E= 5.918622D-01
              MO Center=  1.0D-06,  2.2D-07,  6.8D-07, r^2= 1.6D+01
   Bfn.  Coefficient  Atom+Function         Bfn.  Coefficient  Atom+Function  
  ----- ------------  ---------------      ----- ------------  ---------------
     6      1.598579   1 Si s                37      1.581850   2 C  s         
    56      1.581849   3 C  s                75      1.581849   4 C  s         
    94      1.581849   5 C  s                 5     -0.734733   1 Si s         
    38      0.736915   2 C  px               39      0.736915   2 C  py        
    40      0.736915   2 C  pz               57     -0.736915   3 C  px        

 Vector   60  Occ=0.000000D+00  E= 6.022974D-01
              MO Center=  1.0D+00, -4.9D-01,  5.8D-01, r^2= 1.4D+01
   Bfn.  Coefficient  Atom+Function         Bfn.  Coefficient  Atom+Function  
  ----- ------------  ---------------      ----- ------------  ---------------
   112      1.089799   7 H  s               148     -1.089798  13 H  s         
   106     -0.879950   6 H  s               124      0.879949   9 H  s         
    38     -0.809017   2 C  px               76      0.809017   4 C  px        
   136     -0.781429  11 H  s               154      0.781429  14 H  s         
    40      0.653235   2 C  pz               59     -0.653234   3 C  pz        

 Vector   61  Occ=0.000000D+00  E= 6.022974D-01
              MO Center= -4.1D-02,  1.1D+00,  6.6D-02, r^2= 1.4D+01
   Bfn.  Coefficient  Atom+Function         Bfn.  Coefficient  Atom+Function  
  ----- ------------  ---------------      ----- ------------  ---------------
   118      1.135779   8 H  s               172     -1.135777  17 H  s         
    39     -0.843151   2 C  py               96      0.843150   5 C  py        
   106     -0.727003   6 H  s               124      0.727002   9 H  s         
   142     -0.671845  12 H  s               160      0.671844  15 H  s         
    40      0.539694   2 C  pz               59     -0.539694   3 C  pz        

 Vector   62  Occ=0.000000D+00  E= 6.022974D-01
              MO Center= -9.7D-01, -5.6D-01, -6.5D-01, r^2= 1.4D+01
   Bfn.  Coefficient  Atom+Function         Bfn.  Coefficient  Atom+Function  
  ----- ------------  ---------------      ----- ------------  ---------------
   130      1.065729  10 H  s               166     -1.065728  16 H  s         
   142     -0.902359  12 H  s               160      0.902359  15 H  s         
   136     -0.825156  11 H  s               154      0.825156  14 H  s         
    57      0.791149   3 C  px               95     -0.791148   5 C  px        
    78     -0.669871   4 C  pz               97      0.669870   5 C  pz        

 Vector   63  Occ=0.000000D+00  E= 6.055834D-01
              MO Center=  2.5D-05, -1.8D-06,  1.4D-05, r^2= 1.6D+01
   Bfn.  Coefficient  Atom+Function         Bfn.  Coefficient  Atom+Function  
  ----- ------------  ---------------      ----- ------------  ---------------
     6      0.910229   1 Si s               105     -0.545697   6 H  s         
   111     -0.545697   7 H  s               117     -0.545697   8 H  s         
   123     -0.545693   9 H  s               129     -0.545692  10 H  s         
   135     -0.545693  11 H  s               141     -0.545694  12 H  s         
   147     -0.545695  13 H  s               153     -0.545695  14 H  s         

 Vector   64  Occ=0.000000D+00  E= 6.065222D-01
              MO Center=  1.6D+00,  8.5D-01,  1.0D+00, r^2= 1.4D+01
   Bfn.  Coefficient  Atom+Function         Bfn.  Coefficient  Atom+Function  
  ----- ------------  ---------------      ----- ------------  ---------------
    37      1.448874   2 C  s                33     -0.923833   2 C  s         
    75     -0.806977   4 C  s               118     -0.669962   8 H  s         
   106     -0.630199   6 H  s               117      0.579984   8 H  s         
   105      0.571214   6 H  s               111      0.552705   7 H  s         
   112     -0.546274   7 H  s                71      0.514548   4 C  s         

 Vector   65  Occ=0.000000D+00  E= 6.065222D-01
              MO Center=  2.3D-02, -1.7D+00, -3.8D-02, r^2= 1.5D+01
   Bfn.  Coefficient  Atom+Function         Bfn.  Coefficient  Atom+Function  
  ----- ------------  ---------------      ----- ------------  ---------------
    75     -1.193891   4 C  s                56      1.173683   3 C  s         
    71      0.761250   4 C  s                52     -0.748368   3 C  s         
   148      0.652398  13 H  s               130     -0.646691  10 H  s         
   142      0.527607  12 H  s               124     -0.521902   9 H  s         
   147     -0.500044  13 H  s               129      0.492760  10 H  s         

 Vector   66  Occ=0.000000D+00  E= 6.065222D-01
              MO Center= -1.6D+00,  8.3D-01, -9.7D-01, r^2= 1.4D+01
   Bfn.  Coefficient  Atom+Function         Bfn.  Coefficient  Atom+Function  
  ----- ------------  ---------------      ----- ------------  ---------------
    94      1.444673   5 C  s                90     -0.921158   5 C  s         
    56     -0.825463   3 C  s               172     -0.668046  17 H  s         
   160     -0.632796  15 H  s               171      0.578312  17 H  s         
   159      0.570537  15 H  s               165      0.550125  16 H  s         
   166     -0.540241  16 H  s                52      0.526332   3 C  s         

 Vector   67  Occ=0.000000D+00  E= 6.212203D-01
              MO Center=  5.1D-06, -6.4D-07, -3.3D-07, r^2= 1.2D+01
   Bfn.  Coefficient  Atom+Function         Bfn.  Coefficient  Atom+Function  
  ----- ------------  ---------------      ----- ------------  ---------------
   118      0.785865   8 H  s               136      0.785862  11 H  s         
   154      0.785865  14 H  s               172      0.785862  17 H  s         
    39     -0.629835   2 C  py               58      0.629833   3 C  py        
    77      0.629835   4 C  py               96     -0.629832   5 C  py        
   112     -0.581665   7 H  s               130     -0.581661  10 H  s         

 Vector   68  Occ=0.000000D+00  E= 6.212203D-01
              MO Center=  5.0D-06, -7.6D-08,  5.7D-06, r^2= 1.2D+01
   Bfn.  Coefficient  Atom+Function         Bfn.  Coefficient  Atom+Function  
  ----- ------------  ---------------      ----- ------------  ---------------
   106      0.789545   6 H  s               124      0.789542   9 H  s         
   142      0.789542  12 H  s               160      0.789539  15 H  s         
    40     -0.632784   2 C  pz               59     -0.632782   3 C  pz        
    78      0.632782   4 C  pz               97      0.632779   5 C  pz        
   112     -0.571616   7 H  s               130     -0.571613  10 H  s         

 Vector   69  Occ=0.000000D+00  E= 6.228655D-01
              MO Center=  2.4D-01, -1.2D-01,  1.5D-01, r^2= 1.4D+01
   Bfn.  Coefficient  Atom+Function         Bfn.  Coefficient  Atom+Function  
  ----- ------------  ---------------      ----- ------------  ---------------
   118      1.024769   8 H  s               142      1.013744  12 H  s         
    94      1.003730   5 C  s               130      0.997723  10 H  s         
    39     -0.862917   2 C  py               78      0.842223   4 C  pz        
    57      0.812154   3 C  px              154     -0.606853  14 H  s         
   106     -0.595825   6 H  s                56     -0.571999   3 C  s         

 Vector   70  Occ=0.000000D+00  E= 6.228655D-01
              MO Center= -2.3D-02,  2.7D-01,  3.2D-02, r^2= 1.4D+01
   Bfn.  Coefficient  Atom+Function         Bfn.  Coefficient  Atom+Function  
  ----- ------------  ---------------      ----- ------------  ---------------
   112      0.908841   7 H  s               160      0.892771  15 H  s         
    75      0.878270   4 C  s               136      0.855116  11 H  s         
   166     -0.829708  16 H  s               106     -0.813626   6 H  s         
    56     -0.796515   3 C  s                38     -0.777886   2 C  px        
   154     -0.766089  14 H  s                97      0.747718   5 C  pz        

 Vector   71  Occ=0.000000D+00  E= 6.228656D-01
              MO Center= -2.2D-01, -1.5D-01, -1.8D-01, r^2= 1.4D+01
   Bfn.  Coefficient  Atom+Function         Bfn.  Coefficient  Atom+Function  
  ----- ------------  ---------------      ----- ------------  ---------------
   172      1.045627  17 H  s               124      1.037451   9 H  s         
    37      1.029242   2 C  s               148      1.030333  13 H  s         
    96     -0.875108   5 C  py               59     -0.859764   3 C  pz        
    76     -0.846406   4 C  px              136     -0.500991  11 H  s         
   160     -0.492818  15 H  s                75     -0.466609   4 C  s         

 Vector   72  Occ=0.000000D+00  E= 6.843306D-01
              MO Center=  5.4D-01,  3.2D-01,  3.7D-01, r^2= 7.1D+00
   Bfn.  Coefficient  Atom+Function         Bfn.  Coefficient  Atom+Function  
  ----- ------------  ---------------      ----- ------------  ---------------
    37      0.945056   2 C  s                38      0.904718   2 C  px        
    24      0.892475   1 Si dxz              40      0.823285   2 C  pz        
    39      0.785790   2 C  py               23      0.779326   1 Si dxy       
    76     -0.735005   4 C  px               59     -0.575411   3 C  pz        
    20      0.535594   1 Si py               26      0.533585   1 Si dyz       

 Vector   73  Occ=0.000000D+00  E= 6.843306D-01
              MO Center=  1.3D-02, -6.0D-01, -1.9D-02, r^2= 7.3D+00
   Bfn.  Coefficient  Atom+Function         Bfn.  Coefficient  Atom+Function  
  ----- ------------  ---------------      ----- ------------  ---------------
    26      1.084129   1 Si dyz              77     -0.886457   4 C  py        
    58      0.879170   3 C  py               75      0.781229   4 C  s         
    56     -0.761595   3 C  s                23     -0.716040   1 Si dxy       
    78     -0.656771   4 C  pz               19      0.650610   1 Si px        
    59     -0.634301   3 C  pz               76      0.534795   4 C  px        

 Vector   74  Occ=0.000000D+00  E= 6.843306D-01
              MO Center= -5.5D-01,  2.8D-01, -3.5D-01, r^2= 7.2D+00
   Bfn.  Coefficient  Atom+Function         Bfn.  Coefficient  Atom+Function  
  ----- ------------  ---------------      ----- ------------  ---------------
    24      0.944213   1 Si dxz              94      0.932572   5 C  s         
    95     -0.908836   5 C  px               97     -0.817391   5 C  pz        
    23     -0.753997   1 Si dxy              57      0.756789   3 C  px        
    96      0.754358   5 C  py               78      0.577574   4 C  pz        
    20      0.566643   1 Si py               56     -0.522868   3 C  s         

 Vector   75  Occ=0.000000D+00  E= 7.504665D-01
              MO Center=  2.5D-05, -3.4D-06,  1.3D-05, r^2= 1.4D+01
   Bfn.  Coefficient  Atom+Function         Bfn.  Coefficient  Atom+Function  
  ----- ------------  ---------------      ----- ------------  ---------------
    37      3.056113   2 C  s                56      3.056080   3 C  s         
    75      3.056098   4 C  s                94      3.056054   5 C  s         
   105     -0.835906   6 H  s               111     -0.835906   7 H  s         
   117     -0.835906   8 H  s               123     -0.835897   9 H  s         
   129     -0.835897  10 H  s               135     -0.835897  11 H  s         

 Vector   76  Occ=0.000000D+00  E= 7.514279D-01
              MO Center=  1.7D+00,  7.9D-01,  8.4D-01, r^2= 1.2D+01
   Bfn.  Coefficient  Atom+Function         Bfn.  Coefficient  Atom+Function  
  ----- ------------  ---------------      ----- ------------  ---------------
    37      5.268126   2 C  s                75     -3.273868   4 C  s         
   105     -1.446634   6 H  s               111     -1.440373   7 H  s         
   117     -1.447441   8 H  s                56     -1.135035   3 C  s         
    33     -1.081744   2 C  s                39      1.065900   2 C  py        
    40      1.057350   2 C  pz               38      0.991038   2 C  px        

 Vector   77  Occ=0.000000D+00  E= 7.514279D-01
              MO Center= -6.6D-02, -1.6D+00,  1.2D-01, r^2= 1.3D+01
   Bfn.  Coefficient  Atom+Function         Bfn.  Coefficient  Atom+Function  
  ----- ------------  ---------------      ----- ------------  ---------------
    56      4.410975   3 C  s                75     -4.179019   4 C  s         
    37     -1.448286   2 C  s                94      1.216378   5 C  s         
   129     -1.217602  10 H  s               123     -1.209801   9 H  s         
   135     -1.201807  11 H  s               147      1.154439  13 H  s         
   141      1.146639  12 H  s               153      1.137287  14 H  s         

 Vector   78  Occ=0.000000D+00  E= 7.514279D-01
              MO Center= -1.7D+00,  8.0D-01, -9.6D-01, r^2= 1.2D+01
   Bfn.  Coefficient  Atom+Function         Bfn.  Coefficient  Atom+Function  
  ----- ------------  ---------------      ----- ------------  ---------------
    94      5.306203   5 C  s                56     -3.102989   3 C  s         
    75     -1.480209   4 C  s               159     -1.456103  15 H  s         
   165     -1.451353  16 H  s               171     -1.458320  17 H  s         
    90     -1.089563   5 C  s                96      1.078022   5 C  py        
    97     -1.054544   5 C  pz               95     -1.004231   5 C  px        

 Vector   79  Occ=0.000000D+00  E= 9.763318D-01
              MO Center=  3.3D-01,  2.2D-02,  2.2D-02, r^2= 1.1D+01
   Bfn.  Coefficient  Atom+Function         Bfn.  Coefficient  Atom+Function  
  ----- ------------  ---------------      ----- ------------  ---------------
    37      1.000573   2 C  s                75     -0.935441   4 C  s         
    17     -0.658200   1 Si py               14      0.652513   1 Si py        
    18     -0.651267   1 Si pz               15      0.645640   1 Si pz        
    83      0.362437   4 C  dyz              45     -0.359693   2 C  dyz       
   105     -0.358169   6 H  s               117     -0.358499   8 H  s         

 Vector   80  Occ=0.000000D+00  E= 9.763318D-01
              MO Center= -5.2D-02, -1.9D-01,  1.5D-01, r^2= 1.1D+01
   Bfn.  Coefficient  Atom+Function         Bfn.  Coefficient  Atom+Function  
  ----- ------------  ---------------      ----- ------------  ---------------
    56      1.015179   3 C  s                16      0.848394   1 Si px        
    13     -0.841063   1 Si px               75     -0.671417   4 C  s         
    37     -0.582912   2 C  s                19     -0.401417   1 Si px        
   129     -0.372346  10 H  s               123     -0.345825   9 H  s         
   135     -0.342970  11 H  s                81     -0.321789   4 C  dxz       

 Vector   81  Occ=0.000000D+00  E= 9.763318D-01
              MO Center= -2.8D-01,  1.7D-01, -1.7D-01, r^2= 1.1D+01
   Bfn.  Coefficient  Atom+Function         Bfn.  Coefficient  Atom+Function  
  ----- ------------  ---------------      ----- ------------  ---------------
    94      1.162252   5 C  s                56     -0.613813   3 C  s         
    17     -0.609941   1 Si py               14      0.604671   1 Si py        
    18      0.591341   1 Si pz               15     -0.586232   1 Si pz        
   159     -0.408166  15 H  s               171     -0.409053  17 H  s         
   165     -0.397654  16 H  s                16      0.370949   1 Si px        

 Vector   82  Occ=0.000000D+00  E= 9.868047D-01
              MO Center=  8.6D-05, -1.3D-07,  1.2D-04, r^2= 1.4D+01
   Bfn.  Coefficient  Atom+Function         Bfn.  Coefficient  Atom+Function  
  ----- ------------  ---------------      ----- ------------  ---------------
    43      0.306453   2 C  dxz              62     -0.306436   3 C  dxz       
    81     -0.306438   4 C  dxz             100      0.306421   5 C  dxz       
    45     -0.247953   2 C  dyz              64      0.247953   3 C  dyz       
    83     -0.247938   4 C  dyz             102      0.247938   5 C  dyz       
   115      0.175672   7 H  pz              133      0.175662  10 H  pz        

 Vector   83  Occ=0.000000D+00  E= 9.868047D-01
              MO Center=  1.2D-04, -7.3D-07,  3.5D-06, r^2= 1.4D+01
   Bfn.  Coefficient  Atom+Function         Bfn.  Coefficient  Atom+Function  
  ----- ------------  ---------------      ----- ------------  ---------------
    42      0.320083   2 C  dxy              61      0.320063   3 C  dxy       
    80     -0.320083   4 C  dxy              99     -0.320063   5 C  dxy       
    45     -0.210693   2 C  dyz              64      0.210693   3 C  dyz       
    83     -0.210690   4 C  dyz             102      0.210690   5 C  dyz       
   114      0.183019   7 H  py              132     -0.183007  10 H  py        

 Vector   84  Occ=0.000000D+00  E= 9.869983D-01
              MO Center=  8.4D-01, -4.2D-01,  4.9D-01, r^2= 1.3D+01
   Bfn.  Coefficient  Atom+Function         Bfn.  Coefficient  Atom+Function  
  ----- ------------  ---------------      ----- ------------  ---------------
    45      0.371524   2 C  dyz              83     -0.371533   4 C  dyz       
    42     -0.300224   2 C  dxy              61      0.300234   3 C  dxy       
    62      0.272664   3 C  dxz              81     -0.272664   4 C  dxz       
   108      0.212828   6 H  py              157      0.212539  14 H  pz        
   121      0.210380   8 H  pz              144      0.210680  12 H  py        

 Vector   85  Occ=0.000000D+00  E= 9.869983D-01
              MO Center= -3.4D-03,  8.5D-01,  5.4D-03, r^2= 1.4D+01
   Bfn.  Coefficient  Atom+Function         Bfn.  Coefficient  Atom+Function  
  ----- ------------  ---------------      ----- ------------  ---------------
    43      0.386168   2 C  dxz             100     -0.386199   5 C  dxz       
    42     -0.243819   2 C  dxy              61      0.243842   3 C  dxy       
    80      0.241979   4 C  dxy              99     -0.242002   5 C  dxy       
   107      0.220487   6 H  px              115      0.219402   7 H  pz        
   161      0.220485  15 H  px              169      0.219440  16 H  pz        

 Vector   86  Occ=0.000000D+00  E= 9.869983D-01
              MO Center= -8.3D-01, -4.3D-01, -4.9D-01, r^2= 1.3D+01
   Bfn.  Coefficient  Atom+Function         Bfn.  Coefficient  Atom+Function  
  ----- ------------  ---------------      ----- ------------  ---------------
    64      0.370826   3 C  dyz             102     -0.370836   5 C  dyz       
    80     -0.301215   4 C  dxy              99      0.301225   5 C  dxy       
    62     -0.273484   3 C  dxz              81      0.273484   4 C  dxz       
   139     -0.212149  11 H  pz              162      0.212451  15 H  py        
   126      0.210265   9 H  py              175     -0.209974  17 H  pz        

 Vector   87  Occ=0.000000D+00  E= 1.009365D+00
              MO Center=  1.5D-01, -1.2D-01,  1.2D-01, r^2= 1.2D+01
   Bfn.  Coefficient  Atom+Function         Bfn.  Coefficient  Atom+Function  
  ----- ------------  ---------------      ----- ------------  ---------------
    94      0.736492   5 C  s                17     -0.494905   1 Si py        
    18      0.494636   1 Si pz               20      0.406509   1 Si py        
    21     -0.406288   1 Si pz               14      0.403135   1 Si py        
    15     -0.402916   1 Si pz               16      0.397193   1 Si px        
    95     -0.373985   5 C  px               96      0.350129   5 C  py        

 Vector   88  Occ=0.000000D+00  E= 1.009365D+00
              MO Center=  2.6D-02,  3.9D-02, -1.8D-01, r^2= 1.2D+01
   Bfn.  Coefficient  Atom+Function         Bfn.  Coefficient  Atom+Function  
  ----- ------------  ---------------      ----- ------------  ---------------
    16      0.666416   1 Si px               56      0.638013   3 C  s         
    19     -0.547386   1 Si px               13     -0.542843   1 Si px        
    37     -0.538205   2 C  s                17      0.440929   1 Si py        
    59      0.385042   3 C  pz               40     -0.367099   2 C  pz        
    20     -0.362174   1 Si py               14     -0.359168   1 Si py        

 Vector   89  Occ=0.000000D+00  E= 1.009365D+00
              MO Center= -1.8D-01,  8.3D-02,  6.0D-02, r^2= 1.2D+01
   Bfn.  Coefficient  Atom+Function         Bfn.  Coefficient  Atom+Function  
  ----- ------------  ---------------      ----- ------------  ---------------
    75      0.688801   4 C  s                18      0.627586   1 Si pz        
    21     -0.515492   1 Si pz               15     -0.511213   1 Si pz        
    37     -0.462264   2 C  s                17      0.456079   1 Si py        
    76      0.388391   4 C  px               20     -0.374618   1 Si py        
    14     -0.371509   1 Si py               38     -0.347666   2 C  px        

 Vector   90  Occ=0.000000D+00  E= 1.103720D+00
              MO Center= -8.0D-09, -1.9D-08, -1.1D-08, r^2= 1.3D+01
   Bfn.  Coefficient  Atom+Function         Bfn.  Coefficient  Atom+Function  
  ----- ------------  ---------------      ----- ------------  ---------------
     6      1.063044   1 Si s                37      1.014934   2 C  s         
    56      1.014934   3 C  s                75      1.014934   4 C  s         
    94      1.014934   5 C  s                 5     -0.881789   1 Si s         
    38      0.477272   2 C  px               39      0.477272   2 C  py        
    40      0.477272   2 C  pz               57     -0.477272   3 C  px        

 Vector   91  Occ=0.000000D+00  E= 1.180706D+00
              MO Center=  6.9D-01, -2.9D-02, -2.8D-02, r^2= 6.1D+00
   Bfn.  Coefficient  Atom+Function         Bfn.  Coefficient  Atom+Function  
  ----- ------------  ---------------      ----- ------------  ---------------
    18      1.279154   1 Si pz               17      1.235661   1 Si py        
    15     -1.117383   1 Si pz               75     -1.120549   4 C  s         
    14     -1.079391   1 Si py               37      1.075648   2 C  s         
    21     -0.453571   1 Si pz               20     -0.438149   1 Si py        
   141      0.433993  12 H  s               153      0.433587  14 H  s         

 Vector   92  Occ=0.000000D+00  E= 1.180706D+00
              MO Center= -1.0D-01, -3.2D-01,  3.8D-01, r^2= 6.3D+00
   Bfn.  Coefficient  Atom+Function         Bfn.  Coefficient  Atom+Function  
  ----- ------------  ---------------      ----- ------------  ---------------
    16      1.637062   1 Si px               13     -1.430028   1 Si px        
    56     -1.143654   3 C  s                37      0.751472   2 C  s         
    75      0.678180   4 C  s                19     -0.580481   1 Si px        
    17      0.533003   1 Si py               14     -0.465596   1 Si py        
    18     -0.449079   1 Si pz              129      0.446033  10 H  s         

 Vector   93  Occ=0.000000D+00  E= 1.180706D+00
              MO Center= -5.8D-01,  3.5D-01, -3.5D-01, r^2= 6.0D+00
   Bfn.  Coefficient  Atom+Function         Bfn.  Coefficient  Atom+Function  
  ----- ------------  ---------------      ----- ------------  ---------------
    94      1.314906   5 C  s                17      1.163952   1 Si py        
    18     -1.152315   1 Si pz               14     -1.016751   1 Si py        
    15      1.006585   1 Si pz               56     -0.707899   3 C  s         
    16     -0.695069   1 Si px               13      0.607166   1 Si px        
   159     -0.506016  15 H  s               171     -0.506124  17 H  s         

 Vector   94  Occ=0.000000D+00  E= 1.525027D+00
              MO Center=  2.5D-06, -8.8D-08,  8.3D-07, r^2= 1.4D+01
   Bfn.  Coefficient  Atom+Function         Bfn.  Coefficient  Atom+Function  
  ----- ------------  ---------------      ----- ------------  ---------------
   105      0.671339   6 H  s               123      0.671338   9 H  s         
   141      0.671339  12 H  s               159      0.671338  15 H  s         
    46     -0.482572   2 C  dzz              65     -0.482572   3 C  dzz       
    84     -0.482572   4 C  dzz             103     -0.482572   5 C  dzz       
   117     -0.390591   8 H  s               135     -0.390591  11 H  s         

 Vector   95  Occ=0.000000D+00  E= 1.525027D+00
              MO Center=  1.8D-06, -1.3D-07,  1.5D-06, r^2= 1.4D+01
   Bfn.  Coefficient  Atom+Function         Bfn.  Coefficient  Atom+Function  
  ----- ------------  ---------------      ----- ------------  ---------------
   111      0.613106   7 H  s               129      0.613105  10 H  s         
   147      0.613105  13 H  s               165      0.613105  16 H  s         
   117     -0.549687   8 H  s               135     -0.549687  11 H  s         
   153     -0.549687  14 H  s               171     -0.549686  17 H  s         
    41     -0.440713   2 C  dxx              60     -0.440713   3 C  dxx       

 Vector   96  Occ=0.000000D+00  E= 1.538391D+00
              MO Center=  1.0D+00, -4.8D-01,  5.5D-01, r^2= 1.2D+01
   Bfn.  Coefficient  Atom+Function         Bfn.  Coefficient  Atom+Function  
  ----- ------------  ---------------      ----- ------------  ---------------
   111      0.752510   7 H  s               147     -0.752510  13 H  s         
   105     -0.596044   6 H  s               123      0.596043   9 H  s         
    41     -0.549850   2 C  dxx              79      0.549850   4 C  dxx       
   135     -0.540880  11 H  s               153      0.540880  14 H  s         
    46      0.435522   2 C  dzz              65     -0.435522   3 C  dzz       

 Vector   97  Occ=0.000000D+00  E= 1.538391D+00
              MO Center= -5.4D-02,  1.0D+00,  8.8D-02, r^2= 1.3D+01
   Bfn.  Coefficient  Atom+Function         Bfn.  Coefficient  Atom+Function  
  ----- ------------  ---------------      ----- ------------  ---------------
   117      0.779017   8 H  s               171     -0.779017  17 H  s         
    44     -0.569219   2 C  dyy             101      0.569219   5 C  dyy       
   105     -0.508669   6 H  s               123      0.508669   9 H  s         
   141     -0.457494  12 H  s               159      0.457495  15 H  s         
    46      0.371678   2 C  dzz              65     -0.371679   3 C  dzz       

 Vector   98  Occ=0.000000D+00  E= 1.538391D+00
              MO Center= -9.5D-01, -5.4D-01, -6.4D-01, r^2= 1.2D+01
   Bfn.  Coefficient  Atom+Function         Bfn.  Coefficient  Atom+Function  
  ----- ------------  ---------------      ----- ------------  ---------------
   129      0.732653  10 H  s               165     -0.732653  16 H  s         
   141     -0.623789  12 H  s               159      0.623789  15 H  s         
   135     -0.561806  11 H  s               153      0.561806  14 H  s         
    60     -0.535341   3 C  dxx              98      0.535341   5 C  dxx       
    84      0.455795   4 C  dzz             103     -0.455795   5 C  dzz       

 Vector   99  Occ=0.000000D+00  E= 1.548838D+00
              MO Center=  7.6D-01, -4.0D-01,  4.5D-01, r^2= 1.3D+01
   Bfn.  Coefficient  Atom+Function         Bfn.  Coefficient  Atom+Function  
  ----- ------------  ---------------      ----- ------------  ---------------
   117      0.733004   8 H  s               141      0.707372  12 H  s         
   129      0.629343  10 H  s                44     -0.549531   2 C  dyy       
    84     -0.530598   4 C  dzz             153     -0.509230  14 H  s         
   105     -0.483597   6 H  s                60     -0.472964   3 C  dxx       
    82      0.380737   4 C  dyy              46      0.361804   2 C  dzz       

 Vector  100  Occ=0.000000D+00  E= 1.548838D+00
              MO Center=  3.1D-02,  7.4D-01, -5.7D-02, r^2= 1.3D+01
   Bfn.  Coefficient  Atom+Function         Bfn.  Coefficient  Atom+Function  
  ----- ------------  ---------------      ----- ------------  ---------------
   165     -0.699946  16 H  s               111      0.677149   7 H  s         
   105     -0.575699   6 H  s               159      0.552905  15 H  s         
    98      0.523727   5 C  dxx              41     -0.506531   2 C  dxx       
   153     -0.440596  14 H  s                46      0.431955   2 C  dzz       
   103     -0.414761   5 C  dzz             147      0.406553  13 H  s         

 Vector  101  Occ=0.000000D+00  E= 1.548838D+00
              MO Center= -7.9D-01, -3.4D-01, -3.9D-01, r^2= 1.3D+01
   Bfn.  Coefficient  Atom+Function         Bfn.  Coefficient  Atom+Function  
  ----- ------------  ---------------      ----- ------------  ---------------
   171      0.729408  17 H  s               123      0.702933   9 H  s         
   147      0.604914  13 H  s               101     -0.546747   5 C  dyy       
   135     -0.538297  11 H  s                65     -0.527192   3 C  dzz       
   159     -0.511822  15 H  s                79     -0.454793   4 C  dxx       
    63      0.402591   3 C  dyy             103      0.383037   5 C  dzz       

 Vector  102  Occ=0.000000D+00  E= 1.628572D+00
              MO Center=  4.7D-01,  7.9D-02,  2.8D-01, r^2= 1.6D+01
   Bfn.  Coefficient  Atom+Function         Bfn.  Coefficient  Atom+Function  
  ----- ------------  ---------------      ----- ------------  ---------------
   107      0.262826   6 H  px              108     -0.262823   6 H  py        
   114      0.262824   7 H  py              115     -0.262826   7 H  pz        
   119     -0.262824   8 H  px              121      0.262823   8 H  pz        
   143      0.230177  12 H  px              144      0.230173  12 H  py        
   150     -0.230179  13 H  py              151      0.230177  13 H  pz        

 Vector  103  Occ=0.000000D+00  E= 1.628572D+00
              MO Center=  1.9D+00,  5.8D-01,  7.6D-01, r^2= 1.2D+01
   Bfn.  Coefficient  Atom+Function         Bfn.  Coefficient  Atom+Function  
  ----- ------------  ---------------      ----- ------------  ---------------
   107      0.350863   6 H  px              108     -0.350877   6 H  py        
   114      0.350867   7 H  py              115     -0.350863   7 H  pz        
   119     -0.350867   8 H  px              121      0.350877   8 H  pz        
   143     -0.250672  12 H  px              144     -0.250705  12 H  py        
   150      0.250675  13 H  py              151     -0.250672  13 H  pz        

 Vector  104  Occ=0.000000D+00  E= 1.628572D+00
              MO Center= -3.7D-01, -2.0D+00,  3.7D-01, r^2= 1.2D+01
   Bfn.  Coefficient  Atom+Function         Bfn.  Coefficient  Atom+Function  
  ----- ------------  ---------------      ----- ------------  ---------------
   125      0.333082   9 H  px              126     -0.333056   9 H  py        
   132      0.333068  10 H  py              133      0.333082  10 H  pz        
   137     -0.333067  11 H  px              139     -0.333055  11 H  pz        
   143      0.278550  12 H  px              144      0.278521  12 H  py        
   150     -0.278532  13 H  py              151      0.278550  13 H  pz        

 Vector  105  Occ=0.000000D+00  E= 1.628572D+00
              MO Center= -2.0D+00,  1.3D+00, -1.4D+00, r^2= 8.8D+00
   Bfn.  Coefficient  Atom+Function         Bfn.  Coefficient  Atom+Function  
  ----- ------------  ---------------      ----- ------------  ---------------
   161      0.395026  15 H  px              162      0.395036  15 H  py        
   168     -0.395029  16 H  py              169     -0.395026  16 H  pz        
   173     -0.395029  17 H  px              175      0.395036  17 H  pz        
   125     -0.185524   9 H  px              126      0.185559   9 H  py        
   132     -0.185526  10 H  py              133     -0.185524  10 H  pz        

 Vector  106  Occ=0.000000D+00  E= 1.677822D+00
              MO Center=  1.1D-06, -3.1D-07,  2.1D-06, r^2= 1.6D+01
   Bfn.  Coefficient  Atom+Function         Bfn.  Coefficient  Atom+Function  
  ----- ------------  ---------------      ----- ------------  ---------------
   111      0.326073   7 H  s               129      0.326073  10 H  s         
   147      0.326072  13 H  s               165      0.326072  16 H  s         
   115     -0.302255   7 H  pz              133     -0.302255  10 H  pz        
   151      0.302254  13 H  pz              169      0.302254  16 H  pz        
   107      0.290280   6 H  px              125     -0.290280   9 H  px        

 Vector  107  Occ=0.000000D+00  E= 1.677822D+00
              MO Center=  5.3D-06,  8.1D-08,  1.5D-06, r^2= 1.6D+01
   Bfn.  Coefficient  Atom+Function         Bfn.  Coefficient  Atom+Function  
  ----- ------------  ---------------      ----- ------------  ---------------
   121     -0.320081   8 H  pz              139     -0.320080  11 H  pz        
   157      0.320081  14 H  pz              175      0.320080  17 H  pz        
   108      0.316025   6 H  py              126     -0.316024   9 H  py        
   144     -0.316025  12 H  py              162      0.316024  15 H  py        
   117      0.303739   8 H  s               135      0.303738  11 H  s         

 Vector  108  Occ=0.000000D+00  E= 1.682810D+00
              MO Center=  1.1D+00, -6.5D-01,  6.7D-01, r^2= 1.4D+01
   Bfn.  Coefficient  Atom+Function         Bfn.  Coefficient  Atom+Function  
  ----- ------------  ---------------      ----- ------------  ---------------
   111      0.407519   7 H  s               147     -0.407519  13 H  s         
   115     -0.380166   7 H  pz              150     -0.378165  13 H  py        
   107      0.372300   6 H  px              155     -0.369875  14 H  px        
   126      0.333207   9 H  py              139      0.332783  11 H  pz        
   105     -0.327397   6 H  s               123      0.327397   9 H  s         

 Vector  109  Occ=0.000000D+00  E= 1.682810D+00
              MO Center=  1.9D-01,  7.7D-01, -5.4D-01, r^2= 1.5D+01
   Bfn.  Coefficient  Atom+Function         Bfn.  Coefficient  Atom+Function  
  ----- ------------  ---------------      ----- ------------  ---------------
   117      0.388183   8 H  s               171     -0.388183  17 H  s         
   175     -0.383666  17 H  pz              162     -0.380740  15 H  py        
   141     -0.358372  12 H  s               159      0.358373  15 H  s         
   121     -0.318006   8 H  pz              108      0.301151   6 H  py        
   119     -0.297236   8 H  px              144     -0.287486  12 H  py        

 Vector  110  Occ=0.000000D+00  E= 1.682810D+00
              MO Center= -1.3D+00, -1.2D-01, -1.2D-01, r^2= 1.4D+01
   Bfn.  Coefficient  Atom+Function         Bfn.  Coefficient  Atom+Function  
  ----- ------------  ---------------      ----- ------------  ---------------
   129      0.441244  10 H  s               165     -0.441244  16 H  s         
   169     -0.360969  16 H  pz              132      0.357447  10 H  py        
   133     -0.341893  10 H  pz              161      0.341707  15 H  px        
   137     -0.337438  11 H  px              168      0.338371  16 H  py        
   125     -0.318584   9 H  px              173      0.314315  17 H  px        

 Vector  111  Occ=0.000000D+00  E= 1.714343D+00
              MO Center=  7.3D-01, -3.5D-01,  4.3D-01, r^2= 1.5D+01
   Bfn.  Coefficient  Atom+Function         Bfn.  Coefficient  Atom+Function  
  ----- ------------  ---------------      ----- ------------  ---------------
   117      0.534335   8 H  s               141      0.505227  12 H  s         
   129      0.455833  10 H  s               153     -0.373480  14 H  s         
   121     -0.371096   8 H  pz              144      0.368840  12 H  py        
   157     -0.351286  14 H  pz               39     -0.347412   2 C  py        
   108      0.349030   6 H  py              105     -0.344371   6 H  s         

 Vector  112  Occ=0.000000D+00  E= 1.714343D+00
              MO Center= -5.3D-02,  7.8D-01,  7.8D-02, r^2= 1.5D+01
   Bfn.  Coefficient  Atom+Function         Bfn.  Coefficient  Atom+Function  
  ----- ------------  ---------------      ----- ------------  ---------------
   111      0.502763   7 H  s               165     -0.477236  16 H  s         
   159      0.447587  15 H  s               105     -0.422061   6 H  s         
   115     -0.382670   7 H  pz              161      0.378393  15 H  px        
   169     -0.379526  16 H  pz              107      0.375249   6 H  px        
   135      0.343226  11 H  s                19      0.317941   1 Si px        

 Vector  113  Occ=0.000000D+00  E= 1.714343D+00
              MO Center= -6.7D-01, -4.4D-01, -5.1D-01, r^2= 1.5D+01
   Bfn.  Coefficient  Atom+Function         Bfn.  Coefficient  Atom+Function  
  ----- ------------  ---------------      ----- ------------  ---------------
   171      0.533666  17 H  s               123      0.513218   9 H  s         
   147      0.483756  13 H  s               126      0.357552   9 H  py        
   175      0.359137  17 H  pz               96     -0.352673   5 C  py        
    59     -0.348158   3 C  pz               76     -0.341654   4 C  px        
   139      0.334155  11 H  pz              162      0.332570  15 H  py        

 Vector  114  Occ=0.000000D+00  E= 1.983033D+00
              MO Center=  1.6D-05, -6.6D-08,  2.6D-06, r^2= 1.3D+01
   Bfn.  Coefficient  Atom+Function         Bfn.  Coefficient  Atom+Function  
  ----- ------------  ---------------      ----- ------------  ---------------
    42      0.754655   2 C  dxy              61      0.754649   3 C  dxy       
    80     -0.754654   4 C  dxy              99     -0.754648   5 C  dxy       
    43     -0.526140   2 C  dxz              62      0.526135   3 C  dxz       
    81      0.526139   4 C  dxz             100     -0.526134   5 C  dxz       
   105      0.273510   6 H  s               114     -0.272176   7 H  py        

 Vector  115  Occ=0.000000D+00  E= 1.983033D+00
              MO Center=  5.2D-06, -6.9D-08,  9.8D-06, r^2= 1.3D+01
   Bfn.  Coefficient  Atom+Function         Bfn.  Coefficient  Atom+Function  
  ----- ------------  ---------------      ----- ------------  ---------------
    45      0.739466   2 C  dyz              64     -0.739465   3 C  dyz       
    83      0.739463   4 C  dyz             102     -0.739461   5 C  dyz       
    43     -0.567634   2 C  dxz              62      0.567631   3 C  dxz       
    81      0.567631   4 C  dxz             100     -0.567628   5 C  dxz       
   108     -0.268294   6 H  py              111      0.268005   7 H  s         

 Vector  116  Occ=0.000000D+00  E= 1.985377D+00
              MO Center=  8.0D-01, -4.0D-01,  4.7D-01, r^2= 1.2D+01
   Bfn.  Coefficient  Atom+Function         Bfn.  Coefficient  Atom+Function  
  ----- ------------  ---------------      ----- ------------  ---------------
    45      0.884505   2 C  dyz              83     -0.884506   4 C  dyz       
    42     -0.714843   2 C  dxy              61      0.714844   3 C  dxy       
    62      0.641786   3 C  dxz              81     -0.641787   4 C  dxz       
   111      0.327254   7 H  s               147     -0.327254  13 H  s         
   121     -0.324411   8 H  pz              144     -0.321716  12 H  py        

 Vector  117  Occ=0.000000D+00  E= 1.985377D+00
              MO Center= -2.3D-02,  8.3D-01,  3.8D-02, r^2= 1.3D+01
   Bfn.  Coefficient  Atom+Function         Bfn.  Coefficient  Atom+Function  
  ----- ------------  ---------------      ----- ------------  ---------------
    43      0.922076   2 C  dxz             100     -0.922080   5 C  dxz       
    42     -0.586959   2 C  dxy              61      0.586964   3 C  dxy       
    80      0.555120   4 C  dxy              99     -0.555125   5 C  dxy       
    64      0.366953   3 C  dyz             102     -0.366955   5 C  dyz       
   117      0.341154   8 H  s               171     -0.341156  17 H  s         

 Vector  118  Occ=0.000000D+00  E= 1.985377D+00
              MO Center= -7.8D-01, -4.3D-01, -5.1D-01, r^2= 1.2D+01
   Bfn.  Coefficient  Atom+Function         Bfn.  Coefficient  Atom+Function  
  ----- ------------  ---------------      ----- ------------  ---------------
    64      0.871288   3 C  dyz             102     -0.871289   5 C  dyz       
    80     -0.729427   4 C  dxy              99      0.729428   5 C  dxy       
    62     -0.662453   3 C  dxz              81      0.662454   4 C  dxz       
   129     -0.322364  10 H  s               165      0.322364  16 H  s         
   175      0.320496  17 H  pz              126     -0.318025   9 H  py        

 Vector  119  Occ=0.000000D+00  E= 1.992053D+00
              MO Center=  9.4D-01, -4.7D-01,  5.4D-01, r^2= 1.2D+01
   Bfn.  Coefficient  Atom+Function         Bfn.  Coefficient  Atom+Function  
  ----- ------------  ---------------      ----- ------------  ---------------
    43      0.919003   2 C  dxz              80     -0.888215   4 C  dxy       
    64     -0.802065   3 C  dyz              81      0.630129   4 C  dxz       
    42     -0.599339   2 C  dxy              62      0.415790   3 C  dxz       
   117      0.382038   8 H  s               141      0.368075  12 H  s         
   115     -0.340620   7 H  pz              150      0.332611  13 H  py        

 Vector  120  Occ=0.000000D+00  E= 1.992053D+00
              MO Center=  5.8D-03,  9.3D-01, -1.0D-02, r^2= 1.3D+01
   Bfn.  Coefficient  Atom+Function         Bfn.  Coefficient  Atom+Function  
  ----- ------------  ---------------      ----- ------------  ---------------
   102      0.848106   5 C  dyz              45      0.843635   2 C  dyz       
    42     -0.723865   2 C  dxy              99     -0.719401   5 C  dxy       
    81      0.563079   4 C  dxz              62     -0.555021   3 C  dxz       
    83      0.443604   4 C  dyz              64      0.439136   3 C  dyz       
   165     -0.356200  16 H  s               111      0.354399   7 H  s         

 Vector  121  Occ=0.000000D+00  E= 1.992053D+00
              MO Center= -9.5D-01, -4.6D-01, -5.3D-01, r^2= 1.2D+01
   Bfn.  Coefficient  Atom+Function         Bfn.  Coefficient  Atom+Function  
  ----- ------------  ---------------      ----- ------------  ---------------
   100      0.917904   5 C  dxz              61      0.888064   3 C  dxy       
    83      0.798511   4 C  dyz              62      0.634721   3 C  dxz       
    99      0.604883   5 C  dxy              81      0.411919   4 C  dxz       
   171      0.381603  17 H  s               123      0.368070   9 H  s         
   169      0.340592  16 H  pz              132      0.332831  10 H  py        

 Vector  122  Occ=0.000000D+00  E= 2.202798D+00
              MO Center=  1.9D+00,  3.3D-01,  3.4D-01, r^2= 9.5D+00
   Bfn.  Coefficient  Atom+Function         Bfn.  Coefficient  Atom+Function  
  ----- ------------  ---------------      ----- ------------  ---------------
    37      0.929558   2 C  s                42      0.788717   2 C  dxy       
    43      0.790559   2 C  dxz              75     -0.778313   4 C  s         
    45      0.759293   2 C  dyz              80      0.666237   4 C  dxy       
    81      0.668079   4 C  dxz              83     -0.623751   4 C  dyz       
    38      0.532592   2 C  px               40      0.480365   2 C  pz        

 Vector  123  Occ=0.000000D+00  E= 2.202798D+00
              MO Center= -2.6D-01, -1.3D+00,  6.6D-01, r^2= 1.1D+01
   Bfn.  Coefficient  Atom+Function         Bfn.  Coefficient  Atom+Function  
  ----- ------------  ---------------      ----- ------------  ---------------
    56      0.890770   3 C  s                64     -0.769335   3 C  dyz       
    61      0.740436   3 C  dxy              62     -0.731215   3 C  dxz       
    75     -0.662356   4 C  s                83     -0.584365   4 C  dyz       
    80      0.555466   4 C  dxy              81      0.526516   4 C  dxz       
    58     -0.503970   3 C  py               59      0.487602   3 C  pz        

 Vector  124  Occ=0.000000D+00  E= 2.202798D+00
              MO Center= -1.6D+00,  9.5D-01, -1.0D+00, r^2= 8.7D+00
   Bfn.  Coefficient  Atom+Function         Bfn.  Coefficient  Atom+Function  
  ----- ------------  ---------------      ----- ------------  ---------------
    94      1.029622   5 C  s                99     -0.867066   5 C  dxy       
   100      0.868982   5 C  dxz             102     -0.854261   5 C  dyz       
    95     -0.566437   5 C  px               56     -0.555677   3 C  s         
    97     -0.543708   5 C  pz               96      0.540308   5 C  py        
    61     -0.483262   3 C  dxy              62      0.485178   3 C  dxz       

 Vector  125  Occ=0.000000D+00  E= 2.209344D+00
              MO Center= -6.6D-06, -1.3D-06, -4.7D-06, r^2= 1.4D+01
   Bfn.  Coefficient  Atom+Function         Bfn.  Coefficient  Atom+Function  
  ----- ------------  ---------------      ----- ------------  ---------------
     6      0.482728   1 Si s                42      0.459707   2 C  dxy       
    43      0.459707   2 C  dxz              45      0.459707   2 C  dyz       
    61      0.459709   3 C  dxy              62     -0.459709   3 C  dxz       
    64     -0.459709   3 C  dyz              80     -0.459708   4 C  dxy       
    81     -0.459708   4 C  dxz              83      0.459708   4 C  dyz       

 Vector  126  Occ=0.000000D+00  E= 2.268518D+00
              MO Center=  1.9D+00,  1.0D+00,  1.2D+00, r^2= 1.1D+01
   Bfn.  Coefficient  Atom+Function         Bfn.  Coefficient  Atom+Function  
  ----- ------------  ---------------      ----- ------------  ---------------
    37      1.498569   2 C  s               105     -1.474286   6 H  s         
   111     -1.473146   7 H  s               117     -1.474888   8 H  s         
    75     -0.823584   4 C  s               141      0.811655  12 H  s         
   153      0.812258  14 H  s               147      0.806513  13 H  s         
    33     -0.684189   2 C  s               104      0.633599   6 H  s         

 Vector  127  Occ=0.000000D+00  E= 2.268518D+00
              MO Center=  5.4D-02, -2.0D+00, -8.9D-02, r^2= 1.3D+01
   Bfn.  Coefficient  Atom+Function         Bfn.  Coefficient  Atom+Function  
  ----- ------------  ---------------      ----- ------------  ---------------
    75     -1.243171   4 C  s               141      1.223153  12 H  s         
   147      1.224937  13 H  s               153      1.220542  14 H  s         
    56      1.202070   3 C  s               123     -1.182807   9 H  s         
   129     -1.184591  10 H  s               135     -1.179952  11 H  s         
    71      0.567584   4 C  s                52     -0.548819   3 C  s         

 Vector  128  Occ=0.000000D+00  E= 2.268518D+00
              MO Center= -2.0D+00,  9.8D-01, -1.1D+00, r^2= 1.1D+01
   Bfn.  Coefficient  Atom+Function         Bfn.  Coefficient  Atom+Function  
  ----- ------------  ---------------      ----- ------------  ---------------
    94      1.490072   5 C  s               159     -1.466054  15 H  s         
   165     -1.464670  16 H  s               171     -1.466528  17 H  s         
    56     -0.861121   3 C  s               123      0.848611   9 H  s         
   135      0.849085  11 H  s               129      0.843497  10 H  s         
    90     -0.680310   5 C  s               158      0.630022  15 H  s         

 Vector  129  Occ=0.000000D+00  E= 2.269297D+00
              MO Center= -5.7D-05, -1.2D-05, -3.0D-05, r^2= 1.7D+01
   Bfn.  Coefficient  Atom+Function         Bfn.  Coefficient  Atom+Function  
  ----- ------------  ---------------      ----- ------------  ---------------
    37      1.008704   2 C  s                56      1.008732   3 C  s         
    75      1.008721   4 C  s                94      1.008739   5 C  s         
   105     -0.848891   6 H  s               111     -0.848891   7 H  s         
   117     -0.848891   8 H  s               123     -0.848918   9 H  s         
   129     -0.848918  10 H  s               135     -0.848918  11 H  s         

 Vector  130  Occ=0.000000D+00  E= 2.471859D+00
              MO Center=  1.2D-05, -5.3D-08,  7.7D-06, r^2= 1.5D+01
   Bfn.  Coefficient  Atom+Function         Bfn.  Coefficient  Atom+Function  
  ----- ------------  ---------------      ----- ------------  ---------------
   105      0.761298   6 H  s               123      0.761294   9 H  s         
   141      0.761295  12 H  s               159      0.761292  15 H  s         
   111     -0.722060   7 H  s               129     -0.722055  10 H  s         
   147     -0.722058  13 H  s               165     -0.722053  16 H  s         
    36     -0.488205   2 C  pz               55     -0.488203   3 C  pz        

 Vector  131  Occ=0.000000D+00  E= 2.471859D+00
              MO Center=  7.5D-06,  1.1D-07,  3.9D-06, r^2= 1.5D+01
   Bfn.  Coefficient  Atom+Function         Bfn.  Coefficient  Atom+Function  
  ----- ------------  ---------------      ----- ------------  ---------------
   117      0.856416   8 H  s               135      0.856413  11 H  s         
   153      0.856414  14 H  s               171      0.856411  17 H  s         
    35     -0.549202   2 C  py               54      0.549200   3 C  py        
    73      0.549201   4 C  py               92     -0.549199   5 C  py        
   118     -0.546679   8 H  s               136     -0.546677  11 H  s         

 Vector  132  Occ=0.000000D+00  E= 2.474752D+00
              MO Center=  6.8D-01, -3.4D-01,  4.1D-01, r^2= 1.4D+01
   Bfn.  Coefficient  Atom+Function         Bfn.  Coefficient  Atom+Function  
  ----- ------------  ---------------      ----- ------------  ---------------
   117      1.015695   8 H  s               141      0.978970  12 H  s         
   129      0.907953  10 H  s               153     -0.672857  14 H  s         
   118     -0.662511   8 H  s                35     -0.649190   2 C  py        
   105     -0.636130   6 H  s               142     -0.628410  12 H  s         
    74      0.620801   4 C  pz              116     -0.592379   8 H  s         

 Vector  133  Occ=0.000000D+00  E= 2.474752D+00
              MO Center= -1.9D-02,  7.2D-01,  3.0D-02, r^2= 1.4D+01
   Bfn.  Coefficient  Atom+Function         Bfn.  Coefficient  Atom+Function  
  ----- ------------  ---------------      ----- ------------  ---------------
   111      0.923478   7 H  s               165     -0.902120  16 H  s         
   159      0.830810  15 H  s               105     -0.809447   6 H  s         
   135      0.677978  11 H  s               153     -0.643305  14 H  s         
   112     -0.622355   7 H  s               166      0.610004  16 H  s         
    34     -0.599936   2 C  px               91     -0.587051   5 C  px        

 Vector  134  Occ=0.000000D+00  E= 2.474752D+00
              MO Center= -6.7D-01, -3.8D-01, -4.4D-01, r^2= 1.4D+01
   Bfn.  Coefficient  Atom+Function         Bfn.  Coefficient  Atom+Function  
  ----- ------------  ---------------      ----- ------------  ---------------
   171      1.017569  17 H  s               123      0.989136   9 H  s         
   147      0.928862  13 H  s               172     -0.661066  17 H  s         
    92     -0.649095   5 C  py              124     -0.634665   9 H  s         
   135     -0.636811  11 H  s                55     -0.627116   3 C  pz        
   159     -0.608379  15 H  s               170     -0.591746  17 H  s         

 Vector  135  Occ=0.000000D+00  E= 2.480149D+00
              MO Center=  1.1D+00, -5.7D-01,  6.4D-01, r^2= 1.3D+01
   Bfn.  Coefficient  Atom+Function         Bfn.  Coefficient  Atom+Function  
  ----- ------------  ---------------      ----- ------------  ---------------
   111      0.945723   7 H  s               147     -0.945725  13 H  s         
   105     -0.760647   6 H  s               123      0.760649   9 H  s         
   135     -0.698781  11 H  s               153      0.698780  14 H  s         
   112     -0.647845   7 H  s               148      0.647846  13 H  s         
    34     -0.610018   2 C  px               72      0.610019   4 C  px        

 Vector  136  Occ=0.000000D+00  E= 2.480149D+00
              MO Center=  1.2D-03,  1.1D+00, -2.1D-03, r^2= 1.4D+01
   Bfn.  Coefficient  Atom+Function         Bfn.  Coefficient  Atom+Function  
  ----- ------------  ---------------      ----- ------------  ---------------
   117      0.980892   8 H  s               171     -0.980897  17 H  s         
   118     -0.671937   8 H  s               172      0.671940  17 H  s         
    35     -0.632703   2 C  py               92      0.632706   5 C  py        
   105     -0.620151   6 H  s               123      0.620153   9 H  s         
   141     -0.621537  12 H  s               159      0.621538  15 H  s         

 Vector  137  Occ=0.000000D+00  E= 2.480149D+00
              MO Center= -1.1D+00, -5.5D-01, -6.4D-01, r^2= 1.3D+01
   Bfn.  Coefficient  Atom+Function         Bfn.  Coefficient  Atom+Function  
  ----- ------------  ---------------      ----- ------------  ---------------
   129      0.947208  10 H  s               165     -0.947210  16 H  s         
   141     -0.763464  12 H  s               159      0.763466  15 H  s         
   135     -0.688376  11 H  s               153      0.688375  14 H  s         
   130     -0.648862  10 H  s               166      0.648863  16 H  s         
    53      0.610976   3 C  px               91     -0.610977   5 C  px        

 Vector  138  Occ=0.000000D+00  E= 2.546482D+00
              MO Center=  1.7D+00,  8.4D-01,  9.5D-01, r^2= 1.1D+01
   Bfn.  Coefficient  Atom+Function         Bfn.  Coefficient  Atom+Function  
  ----- ------------  ---------------      ----- ------------  ---------------
    37      2.737573   2 C  s               117     -1.966277   8 H  s         
   105     -1.943453   6 H  s               111     -1.863111   7 H  s         
    75     -1.607416   4 C  s               153      1.238196  14 H  s         
   141      1.215372  12 H  s               147      0.936060  13 H  s         
   120      0.924473   8 H  py              109      0.908871   6 H  pz        

 Vector  139  Occ=0.000000D+00  E= 2.546482D+00
              MO Center=  3.6D-02, -1.6D+00, -6.8D-02, r^2= 1.2D+01
   Bfn.  Coefficient  Atom+Function         Bfn.  Coefficient  Atom+Function  
  ----- ------------  ---------------      ----- ------------  ---------------
    75     -2.247013   4 C  s                56      2.182693   3 C  s         
   147      1.702750  13 H  s               129     -1.661313  10 H  s         
   141      1.582371  12 H  s               123     -1.540934   9 H  s         
   153      1.453254  14 H  s               135     -1.400494  11 H  s         
   149     -0.819524  13 H  px              131     -0.801058  10 H  px        

 Vector  140  Occ=0.000000D+00  E= 2.546482D+00
              MO Center= -1.7D+00,  7.8D-01, -8.8D-01, r^2= 1.1D+01
   Bfn.  Coefficient  Atom+Function         Bfn.  Coefficient  Atom+Function  
  ----- ------------  ---------------      ----- ------------  ---------------
    94      2.713043   5 C  s               171     -1.953256  17 H  s         
   159     -1.928929  15 H  s               165     -1.838928  16 H  s         
    56     -1.678082   3 C  s               135      1.286504  11 H  s         
   123      1.262177   9 H  s               129      0.989965  10 H  s         
   174      0.919332  17 H  py              163     -0.902703  15 H  pz        

 Vector  141  Occ=0.000000D+00  E= 2.555152D+00
              MO Center= -4.8D-06, -3.4D-07, -2.8D-06, r^2= 1.5D+01
   Bfn.  Coefficient  Atom+Function         Bfn.  Coefficient  Atom+Function  
  ----- ------------  ---------------      ----- ------------  ---------------
    37      1.799594   2 C  s                56      1.799598   3 C  s         
    75      1.799597   4 C  s                94      1.799600   5 C  s         
   105     -1.226564   6 H  s               111     -1.226564   7 H  s         
   117     -1.226564   8 H  s               123     -1.226567   9 H  s         
   129     -1.226567  10 H  s               135     -1.226567  11 H  s         

 Vector  142  Occ=0.000000D+00  E= 2.574260D+00
              MO Center= -3.3D-09, -6.8D-09, -4.7D-09, r^2= 1.2D+00
   Bfn.  Coefficient  Atom+Function         Bfn.  Coefficient  Atom+Function  
  ----- ------------  ---------------      ----- ------------  ---------------
     5      9.075103   1 Si s                22     -3.450369   1 Si dxx       
    25     -3.450369   1 Si dyy              27     -3.450369   1 Si dzz       
     4     -2.962788   1 Si s                 3     -0.244387   1 Si s         
     2      0.163907   1 Si s                 1      0.062468   1 Si s         
    38      0.052120   2 C  px               39      0.052120   2 C  py        

 Vector  143  Occ=0.000000D+00  E= 2.583096D+00
              MO Center=  2.0D-06, -8.6D-08,  1.3D-06, r^2= 1.5D+01
   Bfn.  Coefficient  Atom+Function         Bfn.  Coefficient  Atom+Function  
  ----- ------------  ---------------      ----- ------------  ---------------
   111     -0.802027   7 H  s               129     -0.802027  10 H  s         
   147     -0.802026  13 H  s               165     -0.802026  16 H  s         
   105      0.774234   6 H  s               123      0.774232   9 H  s         
   141      0.774233  12 H  s               159      0.774232  15 H  s         
   113      0.644211   7 H  px              131     -0.644210  10 H  px        

 Vector  144  Occ=0.000000D+00  E= 2.583096D+00
              MO Center=  3.9D-06,  8.1D-08,  2.1D-06, r^2= 1.5D+01
   Bfn.  Coefficient  Atom+Function         Bfn.  Coefficient  Atom+Function  
  ----- ------------  ---------------      ----- ------------  ---------------
   117      0.910055   8 H  s               135      0.910053  11 H  s         
   153      0.910054  14 H  s               171      0.910052  17 H  s         
   120     -0.730982   8 H  py              138      0.730980  11 H  py        
   156      0.730981  14 H  py              174     -0.730980  17 H  py        
    44     -0.557760   2 C  dyy              63     -0.557758   3 C  dyy       

 Vector  145  Occ=0.000000D+00  E= 2.590555D+00
              MO Center=  1.1D+00, -5.7D-01,  6.5D-01, r^2= 1.3D+01
   Bfn.  Coefficient  Atom+Function         Bfn.  Coefficient  Atom+Function  
  ----- ------------  ---------------      ----- ------------  ---------------
   111      1.112750   7 H  s               147     -1.112751  13 H  s         
   105     -0.897153   6 H  s               123      0.897153   9 H  s         
   113     -0.848697   7 H  px              149      0.848698  13 H  px        
   135     -0.822274  11 H  s               153      0.822274  14 H  s         
   109      0.684261   6 H  pz              127     -0.684261   9 H  pz        

 Vector  146  Occ=0.000000D+00  E= 2.590555D+00
              MO Center=  2.7D-02,  1.1D+00, -4.8D-02, r^2= 1.4D+01
   Bfn.  Coefficient  Atom+Function         Bfn.  Coefficient  Atom+Function  
  ----- ------------  ---------------      ----- ------------  ---------------
   117      1.148985   8 H  s               171     -1.148987  17 H  s         
   120     -0.876334   8 H  py              174      0.876335  17 H  py        
   141     -0.756009  12 H  s               159      0.756010  15 H  s         
   105     -0.720139   6 H  s               123      0.720141   9 H  s         
    44     -0.659911   2 C  dyy             101      0.659912   5 C  dyy       

 Vector  147  Occ=0.000000D+00  E= 2.590555D+00
              MO Center= -1.1D+00, -5.3D-01, -6.0D-01, r^2= 1.3D+01
   Bfn.  Coefficient  Atom+Function         Bfn.  Coefficient  Atom+Function  
  ----- ------------  ---------------      ----- ------------  ---------------
   129      1.125971  10 H  s               165     -1.125971  16 H  s         
   141     -0.878591  12 H  s               159      0.878591  15 H  s         
   131      0.858781  10 H  px              167     -0.858781  16 H  px        
   135     -0.802918  11 H  s               153      0.802918  14 H  s         
   145     -0.670103  12 H  pz              163      0.670103  15 H  pz        

 Vector  148  Occ=0.000000D+00  E= 2.617011D+00
              MO Center=  5.8D-01, -2.6D-01,  3.1D-01, r^2= 1.4D+01
   Bfn.  Coefficient  Atom+Function         Bfn.  Coefficient  Atom+Function  
  ----- ------------  ---------------      ----- ------------  ---------------
   129      1.253924  10 H  s               117      1.246359   8 H  s         
   141      1.248414  12 H  s               120     -0.895814   8 H  py        
   145      0.878764  12 H  pz              131      0.833033  10 H  px        
    94      0.775616   5 C  s               165     -0.767530  16 H  s         
   105     -0.749261   6 H  s               153     -0.747206  14 H  s         

 Vector  149  Occ=0.000000D+00  E= 2.617011D+00
              MO Center= -4.3D-02,  5.9D-01,  6.9D-02, r^2= 1.5D+01
   Bfn.  Coefficient  Atom+Function         Bfn.  Coefficient  Atom+Function  
  ----- ------------  ---------------      ----- ------------  ---------------
   135      1.089309  11 H  s               159      1.080280  15 H  s         
   111      1.074064   7 H  s               153     -0.997867  14 H  s         
   105     -0.986438   6 H  s               165     -0.980224  16 H  s         
   113     -0.811464   7 H  px              163      0.759887  15 H  pz        
   167     -0.753380  16 H  px              109      0.701801   6 H  pz        

 Vector  150  Occ=0.000000D+00  E= 2.617011D+00
              MO Center= -5.4D-01, -3.2D-01, -3.8D-01, r^2= 1.4D+01
   Bfn.  Coefficient  Atom+Function         Bfn.  Coefficient  Atom+Function  
  ----- ------------  ---------------      ----- ------------  ---------------
   123      1.277674   9 H  s               147      1.281011  13 H  s         
   171      1.275658  17 H  s               174     -0.909448  17 H  py        
   127     -0.892717   9 H  pz              149     -0.865021  13 H  px        
    37      0.793337   2 C  s               101     -0.687056   5 C  dyy       
   111     -0.664462   7 H  s                65     -0.658708   3 C  dzz       

 Vector  151  Occ=0.000000D+00  E= 2.899340D+00
              MO Center=  1.3D-05,  5.2D-07,  8.2D-06, r^2= 1.1D+01
   Bfn.  Coefficient  Atom+Function         Bfn.  Coefficient  Atom+Function  
  ----- ------------  ---------------      ----- ------------  ---------------
    37      1.814529   2 C  s                56      1.814514   3 C  s         
    75      1.814520   4 C  s                94      1.814506   5 C  s         
    33      0.846230   2 C  s                52      0.846223   3 C  s         
    71      0.846226   4 C  s                90      0.846220   5 C  s         
   105     -0.579777   6 H  s               111     -0.579778   7 H  s         

 Vector  152  Occ=0.000000D+00  E= 2.903065D+00
              MO Center=  1.5D+00,  7.1D-01,  8.0D-01, r^2= 7.4D+00
   Bfn.  Coefficient  Atom+Function         Bfn.  Coefficient  Atom+Function  
  ----- ------------  ---------------      ----- ------------  ---------------
    37      3.212893   2 C  s                75     -1.956331   4 C  s         
    33      1.406383   2 C  s               117     -1.102630   8 H  s         
   105     -1.085220   6 H  s               111     -1.020985   7 H  s         
    71     -0.856347   4 C  s                41     -0.833993   2 C  dxx       
    46     -0.804213   2 C  dzz              44     -0.796142   2 C  dyy       

 Vector  153  Occ=0.000000D+00  E= 2.903065D+00
              MO Center= -3.5D-02, -1.5D+00,  6.4D-02, r^2= 8.8D+00
   Bfn.  Coefficient  Atom+Function         Bfn.  Coefficient  Atom+Function  
  ----- ------------  ---------------      ----- ------------  ---------------
    56      2.665984   3 C  s                75     -2.585015   4 C  s         
    52      1.166984   3 C  s                71     -1.131541   4 C  s         
   129     -0.976607  10 H  s               147      0.952616  13 H  s         
   123     -0.891641   9 H  s               141      0.867650  12 H  s         
    37     -0.813975   2 C  s               135     -0.794369  11 H  s         

 Vector  154  Occ=0.000000D+00  E= 2.903065D+00
              MO Center= -1.5D+00,  7.5D-01, -8.6D-01, r^2= 7.3D+00
   Bfn.  Coefficient  Atom+Function         Bfn.  Coefficient  Atom+Function  
  ----- ------------  ---------------      ----- ------------  ---------------
    94      3.237939   5 C  s                56     -1.875031   3 C  s         
    90      1.417347   5 C  s               171     -1.109388  17 H  s         
   159     -1.090216  15 H  s               165     -1.034246  16 H  s         
    75     -0.855976   4 C  s                98     -0.838036   5 C  dxx       
    52     -0.820759   3 C  s               103     -0.812089   5 C  dzz       

 Vector  155  Occ=0.000000D+00  E= 3.627469D+00
              MO Center=  8.1D-05,  9.6D-06,  1.8D-05, r^2= 1.3D+01
   Bfn.  Coefficient  Atom+Function         Bfn.  Coefficient  Atom+Function  
  ----- ------------  ---------------      ----- ------------  ---------------
    34      1.034696   2 C  px               35     -1.035948   2 C  py        
    53     -1.034646   3 C  px               54      1.035909   3 C  py        
    72      1.034683   4 C  px               73      1.035932   4 C  py        
    91     -1.034639   5 C  px               92     -1.035906   5 C  py        
    41      0.696236   2 C  dxx              44     -0.697078   2 C  dyy       

 Vector  156  Occ=0.000000D+00  E= 3.627469D+00
              MO Center=  4.8D-05,  3.3D-06,  6.4D-05, r^2= 1.3D+01
   Bfn.  Coefficient  Atom+Function         Bfn.  Coefficient  Atom+Function  
  ----- ------------  ---------------      ----- ------------  ---------------
    36      1.195488   2 C  pz               55      1.195458   3 C  pz        
    74     -1.195451   4 C  pz               93     -1.195424   5 C  pz        
    46      0.804431   2 C  dzz              65      0.804411   3 C  dzz       
    84      0.804406   4 C  dzz             103      0.804388   5 C  dzz       
   105     -0.704897   6 H  s               123     -0.704879   9 H  s         

 Vector  157  Occ=0.000000D+00  E= 3.628027D+00
              MO Center=  7.9D-01, -3.9D-01,  4.6D-01, r^2= 1.3D+01
   Bfn.  Coefficient  Atom+Function         Bfn.  Coefficient  Atom+Function  
  ----- ------------  ---------------      ----- ------------  ---------------
    35      1.428493   2 C  py               74     -1.361016   4 C  pz        
    53     -1.210055   3 C  px               73      1.008184   4 C  py        
    44      0.961983   2 C  dyy              36     -0.940684   2 C  pz        
    84      0.916601   4 C  dzz             117     -0.846471   8 H  s         
   120      0.820187   8 H  py               60      0.815071   3 C  dxx       

 Vector  158  Occ=0.000000D+00  E= 3.628027D+00
              MO Center= -2.8D-02,  8.2D-01,  4.5D-02, r^2= 1.3D+01
   Bfn.  Coefficient  Atom+Function         Bfn.  Coefficient  Atom+Function  
  ----- ------------  ---------------      ----- ------------  ---------------
    34      1.349396   2 C  px               91      1.314679   5 C  px        
    93     -1.157728   5 C  pz               36     -1.122959   2 C  pz        
    41      0.908589   2 C  dxx              98     -0.885197   5 C  dxx       
    54     -0.858939   3 C  py              111     -0.802477   7 H  s         
    73      0.789432   4 C  py              103      0.779682   5 C  dzz       

 Vector  159  Occ=0.000000D+00  E= 3.628027D+00
              MO Center= -7.6D-01, -4.3D-01, -5.0D-01, r^2= 1.2D+01
   Bfn.  Coefficient  Atom+Function         Bfn.  Coefficient  Atom+Function  
  ----- ------------  ---------------      ----- ------------  ---------------
    92      1.429422   5 C  py               55      1.369591   3 C  pz        
    72      1.248916   4 C  px              101      0.962623   5 C  dyy       
    54      0.955572   3 C  py               65      0.922383   3 C  dzz       
    93      0.895745   5 C  pz              171     -0.846702  17 H  s         
    79      0.841223   4 C  dxx             174      0.820651  17 H  py        

 Vector  160  Occ=0.000000D+00  E= 3.628836D+00
              MO Center=  9.6D-01, -5.5D-01,  5.7D-01, r^2= 1.2D+01
   Bfn.  Coefficient  Atom+Function         Bfn.  Coefficient  Atom+Function  
  ----- ------------  ---------------      ----- ------------  ---------------
    34      1.358341   2 C  px               72     -1.358356   4 C  px        
    36     -1.090155   2 C  pz               55      1.090179   3 C  pz        
    54      1.058082   3 C  py               73     -1.058070   4 C  py        
    41      0.914756   2 C  dxx              79     -0.914766   4 C  dxx       
   111     -0.811347   7 H  s               147      0.811356  13 H  s         

 Vector  161  Occ=0.000000D+00  E= 3.628836D+00
              MO Center=  1.4D-01,  7.4D-01, -3.7D-01, r^2= 1.3D+01
   Bfn.  Coefficient  Atom+Function         Bfn.  Coefficient  Atom+Function  
  ----- ------------  ---------------      ----- ------------  ---------------
    35      1.325344   2 C  py               92     -1.325386   5 C  py        
    74      1.135568   4 C  pz               93     -1.135591   5 C  pz        
    44      0.892535   2 C  dyy             101     -0.892563   5 C  dyy       
   117     -0.791638   8 H  s               171      0.791663  17 H  s         
    36     -0.767540   2 C  pz               55      0.767549   3 C  pz        

 Vector  162  Occ=0.000000D+00  E= 3.628836D+00
              MO Center= -1.1D+00, -2.0D-01, -2.1D-01, r^2= 1.2D+01
   Bfn.  Coefficient  Atom+Function         Bfn.  Coefficient  Atom+Function  
  ----- ------------  ---------------      ----- ------------  ---------------
    53      1.456387   3 C  px               91     -1.456406   5 C  px        
    60     -0.980784   3 C  dxx              98      0.980797   5 C  dxx       
    74     -0.882267   4 C  pz               93      0.882289   5 C  pz        
   129      0.869911  10 H  s               165     -0.869922  16 H  s         
    54     -0.839522   3 C  py               73      0.839509   4 C  py        

 Vector  163  Occ=0.000000D+00  E= 3.735955D+00
              MO Center=  1.9D+00,  9.7D-01,  1.1D+00, r^2= 9.4D+00
   Bfn.  Coefficient  Atom+Function         Bfn.  Coefficient  Atom+Function  
  ----- ------------  ---------------      ----- ------------  ---------------
    34      1.385714   2 C  px               35      1.385621   2 C  py        
    36      1.385648   2 C  pz               41      1.277381   2 C  dxx       
    44      1.276273   2 C  dyy              46      1.276593   2 C  dzz       
   105     -1.133622   6 H  s               111     -1.135491   7 H  s         
   117     -1.132862   8 H  s               109      0.835046   6 H  pz        

 Vector  164  Occ=0.000000D+00  E= 3.735955D+00
              MO Center=  1.8D-02, -1.9D+00, -3.0D-02, r^2= 1.1D+01
   Bfn.  Coefficient  Atom+Function         Bfn.  Coefficient  Atom+Function  
  ----- ------------  ---------------      ----- ------------  ---------------
    72      1.137570   4 C  px               73     -1.137807   4 C  py        
    74     -1.137667   4 C  pz               53      1.124255   3 C  px        
    54      1.124496   3 C  py               55     -1.124352   3 C  pz        
    79      1.046943   4 C  dxx              82      1.049749   4 C  dyy       
    84      1.048089   4 C  dzz              60     -1.034658   3 C  dxx       

 Vector  165  Occ=0.000000D+00  E= 3.735955D+00
              MO Center= -1.9D+00,  9.4D-01, -1.1D+00, r^2= 9.4D+00
   Bfn.  Coefficient  Atom+Function         Bfn.  Coefficient  Atom+Function  
  ----- ------------  ---------------      ----- ------------  ---------------
    91      1.380745   5 C  px               92     -1.380646   5 C  py        
    93      1.380675   5 C  pz               98     -1.272835   5 C  dxx       
   101     -1.271666   5 C  dyy             103     -1.272002   5 C  dzz       
   159      1.129529  15 H  s               165      1.131505  16 H  s         
   171      1.128733  17 H  s               163      0.832039  15 H  pz        

 Vector  166  Occ=0.000000D+00  E= 3.737834D+00
              MO Center= -2.4D-05,  1.4D-06, -1.4D-05, r^2= 1.5D+01
   Bfn.  Coefficient  Atom+Function         Bfn.  Coefficient  Atom+Function  
  ----- ------------  ---------------      ----- ------------  ---------------
    34      0.817600   2 C  px               35      0.817600   2 C  py        
    36      0.817600   2 C  pz               53     -0.817608   3 C  px        
    54     -0.817608   3 C  py               55      0.817608   3 C  pz        
    72      0.817605   4 C  px               73     -0.817604   4 C  py        
    74     -0.817604   4 C  pz               91     -0.817614   5 C  px        

 Vector  167  Occ=0.000000D+00  E= 9.216426D+00
              MO Center= -6.8D-11, -6.6D-11,  7.7D-11, r^2= 6.4D-01
   Bfn.  Coefficient  Atom+Function         Bfn.  Coefficient  Atom+Function  
  ----- ------------  ---------------      ----- ------------  ---------------
     5     13.951491   1 Si s                 4     -8.042855   1 Si s         
    22     -4.385427   1 Si dxx              25     -4.385427   1 Si dyy       
    27     -4.385427   1 Si dzz               3      3.481599   1 Si s         
     6     -1.335386   1 Si s                 2     -0.453978   1 Si s         
     1     -0.113957   1 Si s                37      0.099330   2 C  s         

 Vector  168  Occ=0.000000D+00  E= 1.118033D+01
              MO Center= -9.2D-04,  1.5D-03,  7.6D-04, r^2= 3.0D-01
   Bfn.  Coefficient  Atom+Function         Bfn.  Coefficient  Atom+Function  
  ----- ------------  ---------------      ----- ------------  ---------------
    12      0.980899   1 Si pz                9     -0.854865   1 Si pz        
    10     -0.811613   1 Si px               15     -0.711842   1 Si pz        
     7      0.707330   1 Si px               13      0.588990   1 Si px        
    11      0.495467   1 Si py               18      0.477925   1 Si pz        
     8     -0.431806   1 Si py               16     -0.395444   1 Si px        

 Vector  169  Occ=0.000000D+00  E= 1.118033D+01
              MO Center= -1.6D-04, -1.1D-04, -1.6D-03, r^2= 3.0D-01
   Bfn.  Coefficient  Atom+Function         Bfn.  Coefficient  Atom+Function  
  ----- ------------  ---------------      ----- ------------  ---------------
    11      1.120492   1 Si py                8     -0.976522   1 Si py        
    14     -0.813145   1 Si py               10      0.777724   1 Si px        
     7     -0.677796   1 Si px               13     -0.564397   1 Si px        
    17      0.545939   1 Si py               16      0.378932   1 Si px        
    20     -0.213431   1 Si py               37      0.149379   2 C  s         

 Vector  170  Occ=0.000000D+00  E= 1.118033D+01
              MO Center=  1.1D-03, -1.4D-03,  8.8D-04, r^2= 3.0D-01
   Bfn.  Coefficient  Atom+Function         Bfn.  Coefficient  Atom+Function  
  ----- ------------  ---------------      ----- ------------  ---------------
    12      0.947731   1 Si pz                9     -0.825959   1 Si pz        
    10      0.776400   1 Si px               15     -0.687771   1 Si pz        
     7     -0.676642   1 Si px               11     -0.604464   1 Si py        
    13     -0.563436   1 Si px                8      0.526797   1 Si py        
    18      0.461764   1 Si pz               14      0.438661   1 Si py        

 Vector  171  Occ=0.000000D+00  E= 2.650786D+01
              MO Center=  1.6D+00,  8.3D-01,  9.6D-01, r^2= 6.5D+00
   Bfn.  Coefficient  Atom+Function         Bfn.  Coefficient  Atom+Function  
  ----- ------------  ---------------      ----- ------------  ---------------
    29      2.152902   2 C  s                28     -1.771371   2 C  s         
    67     -1.219312   4 C  s                66      1.003229   4 C  s         
    33     -0.903313   2 C  s                48     -0.588824   3 C  s         
    37     -0.572793   2 C  s                41      0.572095   2 C  dxx       
    44      0.570430   2 C  dyy              46      0.570894   2 C  dzz       

 Vector  172  Occ=0.000000D+00  E= 2.650786D+01
              MO Center=  1.5D-02, -1.6D+00, -2.6D-02, r^2= 8.1D+00
   Bfn.  Coefficient  Atom+Function         Bfn.  Coefficient  Atom+Function  
  ----- ------------  ---------------      ----- ------------  ---------------
    67     -1.766310   4 C  s                48      1.745646   3 C  s         
    66      1.453290   4 C  s                47     -1.436287   3 C  s         
    71      0.741107   4 C  s                52     -0.732437   3 C  s         
    75      0.469938   4 C  s                82     -0.470784   4 C  dyy       
    84     -0.468353   4 C  dzz              86      0.468550   5 C  s         

 Vector  173  Occ=0.000000D+00  E= 2.650786D+01
              MO Center= -1.6D+00,  8.1D-01, -9.4D-01, r^2= 6.6D+00
   Bfn.  Coefficient  Atom+Function         Bfn.  Coefficient  Atom+Function  
  ----- ------------  ---------------      ----- ------------  ---------------
    86      2.145239   5 C  s                85     -1.765066   5 C  s         
    48     -1.243568   3 C  s                47      1.023187   3 C  s         
    90     -0.900097   5 C  s                67     -0.577831   4 C  s         
    94     -0.570754   5 C  s                98      0.570113   5 C  dxx       
   101      0.568362   5 C  dyy             103      0.568845   5 C  dzz       

 Vector  174  Occ=0.000000D+00  E= 2.651600D+01
              MO Center= -8.7D-06, -1.6D-07, -5.1D-06, r^2= 1.1D+01
   Bfn.  Coefficient  Atom+Function         Bfn.  Coefficient  Atom+Function  
  ----- ------------  ---------------      ----- ------------  ---------------
    29      1.283840   2 C  s                48      1.283846   3 C  s         
    67      1.283844   4 C  s                86      1.283850   5 C  s         
    28     -1.055990   2 C  s                47     -1.055995   3 C  s         
    66     -1.055993   4 C  s                85     -1.055997   5 C  s         
    33     -0.539757   2 C  s                52     -0.539760   3 C  s         

 Vector  175  Occ=0.000000D+00  E= 1.464268D+02
              MO Center=  3.5D-13,  4.4D-13, -4.6D-13, r^2= 5.2D-02
   Bfn.  Coefficient  Atom+Function         Bfn.  Coefficient  Atom+Function  
  ----- ------------  ---------------      ----- ------------  ---------------
     5      3.760778   1 Si s                 4     -2.488820   1 Si s         
     2     -1.949804   1 Si s                 3      1.807156   1 Si s         
     1      1.570467   1 Si s                22     -1.160546   1 Si dxx       
    25     -1.160546   1 Si dyy              27     -1.160546   1 Si dzz       
     6     -0.384735   1 Si s         


 center of mass
 --------------
 x =   0.00000000 y =   0.00000000 z =  -0.00000000

 moments of inertia (a.u.)
 ------------------
        1669.167936964611           0.000000000000           0.000000000000
           0.000000000000        1669.167936964611           0.000000000000
           0.000000000000           0.000000000000        1669.167936964611

     Multipole analysis of the density
     ---------------------------------

     L   x y z        total         alpha         beta         nuclear
     -   - - -        -----         -----         ----         -------
     0   0 0 0     -0.000000    -25.000000    -25.000000     50.000000

     1   1 0 0     -0.000001     -0.000001     -0.000001     -0.000000
     1   0 1 0     -0.000000     -0.000000     -0.000000     -0.000000
     1   0 0 1     -0.000001     -0.000000     -0.000000     -0.000000

     2   2 0 0    -31.159759   -280.524997   -280.524997    529.890235
     2   1 1 0     -0.000003     -0.000001     -0.000001     -0.000000
     2   1 0 1     -0.000000     -0.000000     -0.000000     -0.000000
     2   0 2 0    -31.159759   -280.524997   -280.524997    529.890235
     2   0 1 1     -0.000004     -0.000002     -0.000002      0.000000
     2   0 0 2    -31.159759   -280.524997   -280.524997    529.890235


          -----------------------------------------
          Chemical Shielding Tensors (GIAO, in ppm)
          -----------------------------------------

 Grid integrated density:      50.000013463873
 Requested integration accuracy:   0.10E-06
                                NWChem CPHF Module
                                ------------------


  scftype          =     RHF 
  nclosed          =       25
  nopen            =        0
  variables        =     3750
  # of vectors     =        3
  tolerance        = 0.10D-03
  level shift      = 0.00D+00
  max iterations   =       50
  max subspace     =       30

 Grid integrated density:      50.000013463873
 Requested integration accuracy:   0.10E-06
 SCF residual:    1.4172647984926051E-005


Iterative solution of linear equations
  No. of variables     3750
  No. of equations        3
  Maximum subspace       30
        Iterations       50
       Convergence  1.0D-04
        Start time    102.9


   iter   nsub   residual    time
   ----  ------  --------  ---------
     1      3    6.16D-01     117.1
     2      6    6.16D-02     131.2
     3      9    4.60D-03     145.5
     4     12    1.86D-04     159.6
     5     15    4.30D-05     173.8

 Wrote CPHF data to ./tms_nmr.shieldcphf

 Calc. par tensor-> nonrel
      Atom:    1  Si
        Diamagnetic
    869.6744      0.0000      0.0000
      0.0000    869.6744      0.0000
      0.0000      0.0000    869.6744

        Paramagnetic
  -1120.9696      0.0001      0.0000
      0.0001  -1120.9696      0.0001
      0.0000      0.0001  -1120.9696

        Total Shielding Tensor
   -251.2952      0.0001      0.0000
      0.0001   -251.2952      0.0001
      0.0000      0.0001   -251.2952

           isotropic =    -251.2952
          anisotropy =      -0.0001

          Principal Components and Axis System
                 1           2           3
             -251.2953   -251.2952   -251.2951

      1         0.3641      0.8432      0.3957
      2        -0.7111     -0.0228      0.7028
      3         0.6015     -0.5372      0.5912



      Atom:    2  C 
        Diamagnetic
    249.9089     -0.7756     -0.7756
     -0.7756    249.9089     -0.7756
     -0.7756     -0.7756    249.9089

        Paramagnetic
   -216.6881     89.6377     89.6377
     89.6377   -216.6881     89.6377
     89.6377     89.6377   -216.6881

        Total Shielding Tensor
     33.2208     88.8621     88.8621
     88.8621     33.2208     88.8621
     88.8621     88.8621     33.2208

           isotropic =      33.2208
          anisotropy =     266.5864

          Principal Components and Axis System
                 1           2           3
              210.9451    -55.6413    -55.6413

      1         0.5774     -0.8111     -0.0940
      2         0.5774      0.4870     -0.6554
      3         0.5774      0.3241      0.7494



      Atom:    3  C 
        Diamagnetic
    249.9089     -0.7756      0.7756
     -0.7756    249.9089      0.7756
      0.7756      0.7756    249.9089

        Paramagnetic
   -216.6880     89.6377    -89.6377
     89.6377   -216.6880    -89.6377
    -89.6377    -89.6377   -216.6880

        Total Shielding Tensor
     33.2209     88.8621    -88.8621
     88.8621     33.2209    -88.8621
    -88.8621    -88.8621     33.2209

           isotropic =      33.2209
          anisotropy =     266.5864

          Principal Components and Axis System
                 1           2           3
              210.9451    -55.6413    -55.6413

      1         0.5774      0.6362      0.5118
      2         0.5774     -0.7613      0.2950
      3        -0.5774     -0.1252      0.8068



      Atom:    4  C 
        Diamagnetic
    249.9089      0.7756      0.7756
      0.7756    249.9089     -0.7756
      0.7756     -0.7756    249.9089

        Paramagnetic
   -216.6880    -89.6377    -89.6377
    -89.6377   -216.6880     89.6377
    -89.6377     89.6377   -216.6880

        Total Shielding Tensor
     33.2209    -88.8621    -88.8621
    -88.8621     33.2209     88.8621
    -88.8621     88.8621     33.2209

           isotropic =      33.2209
          anisotropy =     266.5864

          Principal Components and Axis System
                 1           2           3
              210.9451    -55.6413    -55.6413

      1         0.5774      0.7950      0.1860
      2        -0.5774      0.5586     -0.5955
      3        -0.5774      0.2364      0.7815



      Atom:    5  C 
        Diamagnetic
    249.9089      0.7756     -0.7756
      0.7756    249.9089      0.7756
     -0.7756      0.7756    249.9089

        Paramagnetic
   -216.6880    -89.6377     89.6377
    -89.6377   -216.6880    -89.6377
     89.6377    -89.6377   -216.6880

        Total Shielding Tensor
     33.2209    -88.8621     88.8621
    -88.8621     33.2209    -88.8621
     88.8621    -88.8621     33.2209

           isotropic =      33.2209
          anisotropy =     266.5864

          Principal Components and Axis System
                 1           2           3
              210.9452    -55.6412    -55.6412

      1        -0.5774      0.7483     -0.3267
      2         0.5774      0.6571      0.4847
      3        -0.5774     -0.0912      0.8114



      Atom:    6  H 
        Diamagnetic
     25.4590      0.6533     -0.1103
      0.6533     25.4590     -0.1103
     -0.1103     -0.1103     38.8680

        Paramagnetic
      2.4827     -0.3033      4.0239
     -0.3033      2.4827      4.0239
      4.0239      4.0239    -12.8050

        Total Shielding Tensor
     27.9417      0.3500      3.9136
      0.3500     27.9417      3.9136
      3.9136      3.9136     26.0630

           isotropic =      27.3155
          anisotropy =       8.2614

          Principal Components and Axis System
                 1           2           3
               32.8231     27.5917     21.5317

      1         0.5471     -0.7071     -0.4479
      2         0.5471      0.7071     -0.4479
      3         0.6335     -0.0000      0.7738



      Atom:    7  H 
        Diamagnetic
     38.8680     -0.1103     -0.1103
     -0.1103     25.4590      0.6533
     -0.1103      0.6533     25.4590

        Paramagnetic
    -12.8050      4.0239      4.0239
      4.0239      2.4827     -0.3033
      4.0239     -0.3033      2.4827

        Total Shielding Tensor
     26.0630      3.9136      3.9136
      3.9136     27.9417      0.3500
      3.9136      0.3500     27.9417

           isotropic =      27.3155
          anisotropy =       8.2614

          Principal Components and Axis System
                 1           2           3
               32.8231     27.5917     21.5317

      1         0.6335      0.0000      0.7738
      2         0.5471     -0.7071     -0.4479
      3         0.5471      0.7071     -0.4479



      Atom:    8  H 
        Diamagnetic
     25.4590     -0.1103      0.6533
     -0.1103     38.8680     -0.1103
      0.6533     -0.1103     25.4590

        Paramagnetic
      2.4827      4.0239     -0.3033
      4.0239    -12.8050      4.0239
     -0.3033      4.0239      2.4827

        Total Shielding Tensor
     27.9417      3.9136      0.3500
      3.9136     26.0630      3.9136
      0.3500      3.9136     27.9417

           isotropic =      27.3155
          anisotropy =       8.2614

          Principal Components and Axis System
                 1           2           3
               32.8231     27.5917     21.5317

      1         0.5471     -0.7071     -0.4479
      2         0.6335     -0.0000      0.7738
      3         0.5471      0.7071     -0.4479



      Atom:    9  H 
        Diamagnetic
     25.4590      0.6533      0.1103
      0.6533     25.4590      0.1103
      0.1103      0.1103     38.8680

        Paramagnetic
      2.4827     -0.3033     -4.0239
     -0.3033      2.4827     -4.0239
     -4.0239     -4.0239    -12.8050

        Total Shielding Tensor
     27.9417      0.3500     -3.9136
      0.3500     27.9417     -3.9136
     -3.9136     -3.9136     26.0630

           isotropic =      27.3155
          anisotropy =       8.2614

          Principal Components and Axis System
                 1           2           3
               32.8231     27.5917     21.5317

      1         0.5471     -0.7071      0.4479
      2         0.5471      0.7071      0.4479
      3        -0.6335     -0.0000      0.7738



      Atom:   10  H 
        Diamagnetic
     38.8680     -0.1103      0.1103
     -0.1103     25.4590     -0.6533
      0.1103     -0.6533     25.4590

        Paramagnetic
    -12.8050      4.0239     -4.0239
      4.0239      2.4827      0.3033
     -4.0239      0.3033      2.4827

        Total Shielding Tensor
     26.0630      3.9136     -3.9136
      3.9136     27.9417     -0.3500
     -3.9136     -0.3500     27.9417

           isotropic =      27.3155
          anisotropy =       8.2614

          Principal Components and Axis System
                 1           2           3
               32.8231     27.5917     21.5317

      1         0.6335     -0.0000      0.7738
      2         0.5471      0.7071     -0.4479
      3        -0.5471      0.7071      0.4479



      Atom:   11  H 
        Diamagnetic
     25.4590     -0.1103     -0.6533
     -0.1103     38.8680      0.1103
     -0.6533      0.1103     25.4590

        Paramagnetic
      2.4827      4.0239      0.3033
      4.0239    -12.8050     -4.0239
      0.3033     -4.0239      2.4827

        Total Shielding Tensor
     27.9417      3.9136     -0.3500
      3.9136     26.0630     -3.9136
     -0.3500     -3.9136     27.9417

           isotropic =      27.3155
          anisotropy =       8.2614

          Principal Components and Axis System
                 1           2           3
               32.8231     27.5917     21.5317

      1         0.5471      0.7071     -0.4479
      2         0.6335     -0.0000      0.7738
      3        -0.5471      0.7071      0.4479



      Atom:   12  H 
        Diamagnetic
     25.4590     -0.6533      0.1103
     -0.6533     25.4590     -0.1103
      0.1103     -0.1103     38.8680

        Paramagnetic
      2.4827      0.3033     -4.0239
      0.3033      2.4827      4.0239
     -4.0239      4.0239    -12.8050

        Total Shielding Tensor
     27.9417     -0.3500     -3.9136
     -0.3500     27.9417      3.9136
     -3.9136      3.9136     26.0630

           isotropic =      27.3155
          anisotropy =       8.2614

          Principal Components and Axis System
                 1           2           3
               32.8231     27.5917     21.5317

      1         0.5471      0.7071      0.4479
      2        -0.5471      0.7071     -0.4479
      3        -0.6335     -0.0000      0.7738



      Atom:   13  H 
        Diamagnetic
     38.8680      0.1103      0.1103
      0.1103     25.4590      0.6533
      0.1103      0.6533     25.4590

        Paramagnetic
    -12.8050     -4.0239     -4.0239
     -4.0239      2.4827     -0.3033
     -4.0239     -0.3033      2.4827

        Total Shielding Tensor
     26.0630     -3.9136     -3.9136
     -3.9136     27.9417      0.3500
     -3.9136      0.3500     27.9417

           isotropic =      27.3155
          anisotropy =       8.2614

          Principal Components and Axis System
                 1           2           3
               32.8231     27.5917     21.5317

      1        -0.6335      0.0000      0.7738
      2         0.5471     -0.7071      0.4479
      3         0.5471      0.7071      0.4479



      Atom:   14  H 
        Diamagnetic
     25.4590      0.1103     -0.6533
      0.1103     38.8680     -0.1103
     -0.6533     -0.1103     25.4590

        Paramagnetic
      2.4827     -4.0239      0.3033
     -4.0239    -12.8050      4.0239
      0.3033      4.0239      2.4827

        Total Shielding Tensor
     27.9417     -3.9136     -0.3500
     -3.9136     26.0630      3.9136
     -0.3500      3.9136     27.9417

           isotropic =      27.3155
          anisotropy =       8.2614

          Principal Components and Axis System
                 1           2           3
               32.8231     27.5917     21.5317

      1         0.5471      0.7071      0.4479
      2        -0.6335     -0.0000      0.7738
      3        -0.5471      0.7071     -0.4479



      Atom:   15  H 
        Diamagnetic
     25.4590     -0.6533     -0.1103
     -0.6533     25.4590      0.1103
     -0.1103      0.1103     38.8680

        Paramagnetic
      2.4827      0.3033      4.0239
      0.3033      2.4827     -4.0239
      4.0239     -4.0239    -12.8050

        Total Shielding Tensor
     27.9417     -0.3500      3.9136
     -0.3500     27.9417     -3.9136
      3.9136     -3.9136     26.0630

           isotropic =      27.3155
          anisotropy =       8.2614

          Principal Components and Axis System
                 1           2           3
               32.8231     27.5917     21.5317

      1         0.5471      0.7071     -0.4479
      2        -0.5471      0.7071      0.4479
      3         0.6335     -0.0000      0.7738



      Atom:   16  H 
        Diamagnetic
     38.8680      0.1103     -0.1103
      0.1103     25.4590     -0.6533
     -0.1103     -0.6533     25.4590

        Paramagnetic
    -12.8050     -4.0239      4.0239
     -4.0239      2.4827      0.3033
      4.0239      0.3033      2.4827

        Total Shielding Tensor
     26.0630     -3.9136      3.9136
     -3.9136     27.9417     -0.3500
      3.9136     -0.3500     27.9417

           isotropic =      27.3155
          anisotropy =       8.2614

          Principal Components and Axis System
                 1           2           3
               32.8231     27.5917     21.5317

      1        -0.6335     -0.0000      0.7738
      2         0.5471      0.7071      0.4479
      3        -0.5471      0.7071     -0.4479



      Atom:   17  H 
        Diamagnetic
     25.4590      0.1103      0.6533
      0.1103     38.8680      0.1103
      0.6533      0.1103     25.4590

        Paramagnetic
      2.4827     -4.0239     -0.3033
     -4.0239    -12.8050     -4.0239
     -0.3033     -4.0239      2.4827

        Total Shielding Tensor
     27.9417     -3.9136      0.3500
     -3.9136     26.0630     -3.9136
      0.3500     -3.9136     27.9417

           isotropic =      27.3155
          anisotropy =       8.2614

          Principal Components and Axis System
                 1           2           3
               32.8231     27.5917     21.5317

      1         0.5471     -0.7071      0.4479
      2        -0.6335     -0.0000      0.7738
      3         0.5471      0.7071      0.4479




 Task  times  cpu:      176.8s     wall:      176.8s


                                NWChem Input Module
                                -------------------


 Summary of allocated global arrays
-----------------------------------
  No active global arrays


MA_summarize_allocated_blocks: starting scan ...
heap block 'gridpts', handle 87, address 0x5e03d3a62cc0:
	type of elements:		double precision
	number of elements:		33554432
	address of client space:	0x5e03d3a62d40
	index for client space:		142215743
	total number of bytes:		268435592
MA_summarize_allocated_blocks: scan completed: 1 heap block, 0 stack blocks
MA usage statistics:

	allocation statistics:
					      heap	     stack
					      ----	     -----
	current number of blocks	         1	         0
	maximum number of blocks	        27	        59
	current total bytes		 268435592	         0
	maximum total bytes		 299782080	  22520504
	maximum total K-bytes		    299783	     22521
	maximum total M-bytes		       300	        23


                                     CITATION
                                     --------
                Please cite the following reference when publishing
                           results obtained with NWChem:

          E. Apra, E. J. Bylaska, W. A. de Jong, N. Govind, K. Kowalski,
       T. P. Straatsma, M. Valiev, H. J. J. van Dam, Y. Alexeev, J. Anchell,
       V. Anisimov, F. W. Aquino, R. Atta-Fynn, J. Autschbach, N. P. Bauman,
     J. C. Becca, D. E. Bernholdt, K. Bhaskaran-Nair, S. Bogatko, P. Borowski,
         J. Boschen, J. Brabec, A. Bruner, E. Cauet, Y. Chen, G. N. Chuev,
      C. J. Cramer, J. Daily, M. J. O. Deegan, T. H. Dunning Jr., M. Dupuis,
   K. G. Dyall, G. I. Fann, S. A. Fischer, A. Fonari, H. Fruchtl, L. Gagliardi,
      J. Garza, N. Gawande, S. Ghosh, K. Glaesemann, A. W. Gotz, J. Hammond,
       V. Helms, E. D. Hermes, K. Hirao, S. Hirata, M. Jacquelin, L. Jensen,
   B. G. Johnson, H. Jonsson, R. A. Kendall, M. Klemm, R. Kobayashi, V. Konkov,
      S. Krishnamoorthy, M. Krishnan, Z. Lin, R. D. Lins, R. J. Littlefield,
      A. J. Logsdail, K. Lopata, W. Ma, A. V. Marenich, J. Martin del Campo,
   D. Mejia-Rodriguez, J. E. Moore, J. M. Mullin, T. Nakajima, D. R. Nascimento,
    J. A. Nichols, P. J. Nichols, J. Nieplocha, A. Otero-de-la-Roza, B. Palmer,
    A. Panyala, T. Pirojsirikul, B. Peng, R. Peverati, J. Pittner, L. Pollack,
   R. M. Richard, P. Sadayappan, G. C. Schatz, W. A. Shelton, D. W. Silverstein,
   D. M. A. Smith, T. A. Soares, D. Song, M. Swart, H. L. Taylor, G. S. Thomas,
            V. Tipparaju, D. G. Truhlar, K. Tsemekhman, T. Van Voorhis,
      A. Vazquez-Mayagoitia, P. Verma, O. Villa, A. Vishnu, K. D. Vogiatzis,
        D. Wang, J. H. Weare, M. J. Williamson, T. L. Windus, K. Wolinski,
        A. T. Wong, Q. Wu, C. Yang, Q. Yu, M. Zacharias, Z. Zhang, Y. Zhao,
                                and R. J. Harrison
                        "NWChem: Past, present, and future
                         J. Chem. Phys. 152, 184102 (2020)
                               doi:10.1063/5.0004997

                                      AUTHORS
                                      -------
        E. Apra, E. J. Bylaska, N. Govind, K. Kowalski, D. Mejia-Rodriguez,
        N. P. Bauman, A. Panyala, R. J. Harrison, M. Valiev, W. A. de Jong,
       T. P. Straatsma, H. J. J. van Dam, D. Wang, T. L. Windus, J. Hammond,
     J. Autschbach, R. de P. Soares, A. Kunitsa, K. Bhaskaran-Nair, J. Brabec,
      K. Lopata, S. A. Fischer, S. Krishnamoorthy, M. Jacquelin, R. Goswami,
       A. Woods, W. Ma, M. Klemm, O. Villa, Y. Chen, V. Anisimov, F. Aquino,
     S. Hirata, M. T. Hackler, E. Hermes, L. Jensen, J. E. Moore, J. C. Becca,
      V. Konjkov, T. Risthaus, M. Malagoli, A. Marenich, A. Otero-de-la-Roza,
        J. Mullin, P. Nichols, R. Peverati, J. Pittner, Y. Zhao, P.-D. Fan,
        A. Fonari, M. J. Williamson, J. R. Rehr, M. Dupuis, D. Silverstein,
    D. M. A. Smith, J. Nieplocha, V. Tipparaju, M. Krishnan, B. E. Van Kuiken,
        A. Vazquez-Mayagoitia, M. Swart, Q. Wu, T. Van Voorhis, A. A. Auer,
     M. Nooijen, L. D. Crosby, E. Brown, G. Cisneros, G. I. Fann, H. Fruchtl,
   J. Garza, K. Hirao, R. A. Kendall, J. A. Nichols, K. Tsemekhman, K. Wolinski,
     J. Anchell, D. E. Bernholdt, P. Borowski, T. Clark, D. Clerc, H. Dachsel,
   M. J. O. Deegan, K. Dyall, D. Elwood, E. Glendening, M. Gutowski, A. C. Hess,
         J. Jaffe, B. G. Johnson, J. Ju, R. Kobayashi, R. Kutteh, Z. Lin,
   R. Littlefield, X. Long, B. Meng, T. Nakajima, S. Niu, L. Pollack, M. Rosing,
   K. Glaesemann, G. Sandrone, M. Stave, H. Taylor, G. Thomas, J. H. van Lenthe,
                               A. T. Wong, Z. Zhang.

 Total times  cpu:      176.8s     wall:      176.8s
