&CONTROL
  calculation = "relax"
  etot_conv_thr =   1.0d-08
  forc_conv_thr =   1.0d-4
  pseudo_dir    = "./"
  verbosity = 'high'
  nstep = 250
/

&SYSTEM
  smearing = 'gauss'
  ecutwfc =  80
  ibrav = 0
  nat = 55
  nosym = .false.
  ntyp = 2
  occupations = 'smearing'
  degauss = 0.02
  assume_isolated = '2D'
  noncolin= .true.
  lspinorb= .true.
/

&ELECTRONS
  mixing_beta = 0.2
  diagonalization = 'rmm-davidson' 
  conv_thr =   1.D-9
  electron_maxstep = 100
  startingpot      = "atomic"
  startingwfc      = "atomic+random"
/

&IONS
  ion_dynamics = "bfgs"
/

&CELL
!  cell_dofree = '2Dxy'
/

ATOMIC_SPECIES
    Se     78.96 Se_r.upf
    Fl     289.0 Fl-6spd_r.upf

ATOMIC_POSITIONS angstrom
Se               1.6508891315        1.6837469017        3.7833800375    0   0   0
Se               3.8796958405        1.6709284235        7.4216381237
Se               3.1642919993        3.3592241142        2.8896998588    0   0   0
Se               0.9927954330        3.3719017659        6.6069899198
Se               1.7096930034        0.0137894932        2.0725911422    0   0   0
Se               3.8128152472        0.0035574959        5.7095621513
Se               6.0005782781        1.6837487630        3.7833778388    0   0   0
Se               8.2206590609        1.6744940774        7.4242954487
Se               7.5139785082        3.3592256570        2.8896932891    0   0   0
Se               5.3480798878        3.3604048269        6.5949361195
Se               6.0593769531        0.0137906478        2.0725890956    0   0   0
Se               8.1457271426        0.1119854892        5.6292810121
Se              10.3502724514        1.6837465223        3.7833710186    0   0   0
Se              12.6005344787        1.6657377258        7.4234966841
Se              11.8636766103        3.3592235671        2.8896932602    0   0   0
Se               9.7324129885        3.2947172817        6.5851831379
Se              10.4090773600        0.0137883654        2.0725834475    0   0   0
Se              12.5609100814        0.0219265759        5.6803336880
Se               1.6506855375        6.7280182182        3.7833117340    0   0   0
Se               3.8752172663        6.7023573378        7.4142086031
Se               3.1639926932        8.4039276883        2.8898890194    0   0   0
Se               0.9816714724        8.4144595077        6.6007960419
Se               1.7096973664        5.0585201930        2.0721673571    0   0   0
Se               3.8295364785        5.0291972904        5.7000417156
Se               6.0003746542        6.7280201319        3.7833094929    0   0   0
Se               8.4336138335        6.6668491759        7.0498648222
Se               7.5136792004        8.4039291964        2.8898825031    0   0   0
Se               5.3001399635        8.3984003594        6.5608019920
Se               6.0593813340        5.0585212997        2.0721652760    0   0   0
Se               8.1923170496        4.8274971492        5.5123278807
Se              10.3500690377        6.7280178865        3.7833025820    0   0   0
Se              12.5689060879        6.7060245566        7.3947952296
Se              11.8633773323        8.4039271251        2.8898823950    0   0   0
Se               9.8251901673        8.3191531822        6.0576317615
Se              10.4090817311        5.0585189658        2.0721595301    0   0   0
Se              12.5298133694        5.0325870285        5.6829165545
Se               1.6506538675       11.7727124308        3.7839128968    0   0   0
Se               3.8824783414       11.7655542856        7.4158233984
Se               3.1642562799       13.4480706906        2.8903550029    0   0   0
Se               0.9874055191       13.4569725212        6.5965438446
Se               1.7094434988       10.1032963955        2.0726019891    0   0   0
Se               3.7966601655       10.0978033886        5.6935064823
Se               6.0003428289       11.7727143070        3.7839105841    0   0   0
Se               8.3219534820       11.8812416657        7.0886832834
Se               7.5139427049       13.4480722022        2.8903484928    0   0   0
Se               5.3401219218       13.4623598948        6.5954761304
Se               6.0591274158       10.1032975129        2.0725999284    0   0   0
Se               8.3161305911       10.0938067514        5.3798366292
Se              10.3500372389       11.7727120227        3.7839038076    0   0   0
Se              12.5821913924       11.7559888249        7.4141630797
Se              11.8636409029       13.4480700929        2.8903483656    0   0   0
Se               9.7888265434       13.6740060259        6.4476753317
Se              10.4088279598       10.1032953896        2.0725941285    0   0   0
Se              12.5312243036       10.0911181479        5.6830586759
Fl               7.6143815066        9.2980510637        8.5785855911

CELL_PARAMETERS angstrom
  13.049072483   0.000001159   0.000000000
   0.000000444  15.133480000   0.000000000
   0.000000000   0.000000000  17.485799789

K_POINTS automatic
  6 6 1 0 0 0


