echo

start molecule

title "W(CO)6"
charge 0

geometry units angstroms print xyz autosym
   C       -1.16788       -1.69882        0.00000
   W        0.00000        0.00000        0.00000
   C        1.16788        1.69882        0.00000
   C        0.00000        0.00000        2.06153
   C        0.00000       -0.00000       -2.06153
   C       -1.69882        1.16788        0.00000
   C        1.69882       -1.16788        0.00000
   O       -1.82168       -2.64985        0.00000
   O        1.82168        2.64985        0.00000
   O        0.00000        0.00000        3.21562
   O        0.00000        0.00000       -3.21562
   O       -2.64985        1.82168        0.00000
   O        2.64985       -1.82168        0.00000
end

basis
  * library 6-31G*
end

dft
  xc b3lyp
  mult 1
end

task dft optimize
