&control
    calculation   = 'scf',
    prefix        = 'qe',
    wf_collect    = .true.,
    pseudo_dir    = './',
    restart_mode='from_scratch'
/

&system
    ibrav           = 0,
    nat             = 320,
    ntyp            = 3,
    ecutwfc         = 70.0,
  occupations = 'smearing'
  smearing = 'Gaussian'
  degauss =   0.22                 
  nosym = .true.
  noncolin        = .false.
  lspinorb        = .false.
/

&electrons
  conv_thr =   5.0d-08
  electron_maxstep = 50
  mixing_beta =   4.0000000000d-01
/

&ions
/

ATOMIC_SPECIES
    H 1.007825 'H.upf'
    O 15.994914 'O.upf'
    Si 27.976926 'Si.upf'

ATOMIC_POSITIONS angstrom
    H 6.36268663407478 -8.51855068150723 0.33463853470167
    H 6.36330964213089 -3.13283786448101 0.33463853677074
    H 6.36393264860969 2.25287494836197 0.33463853838724
    H 6.36455565418485 7.63858776347643 0.33463853807191
    H -6.18817457040382 -8.91731947726648 -0.1830492801768
    H -6.18755156185342 -3.53160666318019 -0.18304928033369
    H -6.18692855666282 1.8541061514799 -0.18304928050793
    H -6.18630554730778 7.23981896497793 -0.1830492810968
    H -1.29378776576002 -8.917319476640349 -0.18304927956252
    H -1.29316475478482 -3.53160666462599 -0.18304927849293
    H -1.29254174528788 1.85410615041321 -0.18304928011345
    H -1.29191873879861 7.23981896311001 -0.18304927969411
    H 3.60059904325468 -8.917319474819379 -0.18304928109194
    H 3.60122205145734 -3.53160666547492 -0.18304927780085
    H 3.60184505974615 1.85410614956863 -0.18304927972166
    H 3.60246806579365 7.23981896255262 -0.18304928111725
    H 8.494985848870821 -8.917319477510221 -0.1830492793296
    H 8.495608857732149 -3.53160666365615 -0.18304928016546
    H 8.49623186604596 1.85410614992588 -0.18304927993927
    H 8.49685487317044 7.23981896430138 -0.18304928051838
    O -7.22907753359012 -5.81719844949402 -1.66635921117863
    O -7.22845452588765 -0.43148563532215 -1.66635921187361
    O -7.22783151786327 4.95422717920607 -1.66635921201013
    O -7.2272085101139 10.33993999119856 -1.66635921121119
    O -2.33469072667797 -5.81719844958947 -1.66635921162783
    O -2.33406771857725 -0.43148563585768 -1.66635921128983
    O -2.33344471022123 4.95422717820725 -1.66635921149576
    O -2.33282170314363 10.33993999197304 -1.66635921165968
    O 2.55969608088223 -5.81719844971251 -1.66635921180032
    O 2.56031908892871 -0.43148563602753 -1.66635921161148
    O 2.56094209660953 4.95422717681988 -1.66635921210988
    O 2.56156510367321 10.33993999269644 -1.66635921212954
    O 7.45408288769521 -5.81719844930772 -1.66635921175428
    O 7.45470589559132 -0.43148563531043 -1.66635921237398
    O 7.45532890327606 4.95422717774423 -1.66635921160876
    O 7.45595191056205 10.33993999148312 -1.66635921126515
    O -5.46614912959936 -9.586501167229001 -0.29996493187032
    O -5.46552612087272 -4.20078835322713 -0.29996493233644
    O -5.46490311523234 1.18492446210602 -0.29996493252693
    O -5.46428010668756 6.57063727562758 -0.29996493233184
    O -0.5717623246382 -9.58650116540406 -0.29996493135968
    O -0.57113931400125 -4.20078835392621 -0.29996493204855
    O -0.57051630539946 1.18492446047089 -0.29996493243841
    O -0.56989329762415 6.57063727377003 -0.29996493202745
    O 4.32262448362332 -9.586501164517729 -0.29996493293242
    O 4.32324749364103 -4.20078835443652 -0.2999649316237
    O 4.32387050120154 1.18492446013071 -0.29996493223325
    O 4.32449350747966 6.57063727341295 -0.29996493271584
    O 9.217011290207481 -9.58650116608912 -0.29996493214773
    O 9.21763429926526 -4.20078835266745 -0.29996493221877
    O 9.218257307450219 1.1849244609427 -0.29996493262682
    O 9.218880314298019 6.57063727490456 -0.29996493255924
    O -7.63502450758959 -7.87812715351473 0.04807492627712
    O -7.63440149935982 -2.49241433978284 0.04807492509006
    O -7.63377849051991 2.89329847447469 0.04807492512143
    O -7.6331554843006 8.279011286737161 0.04807492561488
    O -2.74063769941771 -7.87812715444307 0.04807492559083
    O -2.74001469256013 -2.4924143392569 0.04807492635911
    O -2.73939168513721 2.89329847446433 0.04807492589837
    O -2.7387686756273 8.27901128747394 0.04807492602153
    O 2.15374910662274 -7.87812715430653 0.04807492487942
    O 2.15437211575291 -2.49241434102216 0.0480749248553
    O 2.15499512322107 2.89329847298466 0.04807492555332
    O 2.15561813105532 8.27901128861339 0.0480749254623
    O 7.04813591504468 -7.87812715511749 0.04807492374868
    O 7.04875892329015 -2.4924143394411 0.04807492503728
    O 7.04938193046242 2.89329847302539 0.04807492611588
    O 7.05000493542262 8.279011287584391 0.04807492655501
    O -5.20651112548245 -10.06791458166425 -2.95839332773146
    O -5.20588811703068 -4.68220176843368 -2.9583933278359
    O -5.205265109023 0.70351104647901 -2.95839332771394
    O -5.20464210062192 6.08922385959494 -2.95839332764161
    O -0.31212431824726 -10.06791458079791 -2.958393327462
    O -0.3115013099512 -4.68220176800139 -2.95839332838613
    O -0.3108783019363 0.70351104485827 -2.95839332789166
    O -0.31025529356187 6.08922385923472 -2.95839332787711
    O 4.58226248884199 -10.06791458065211 -2.9583933283112
    O 4.58288549731855 -4.68220176770728 -2.95839332773224
    O 4.58350850541382 0.7035110453575401 -2.9583933280469
    O 4.58413151315226 6.08922385863262 -2.95839332796059
    O 9.47664929543474 -10.06791458130747 -2.95839332768351
    O 9.477272304307739 -4.68220176782433 -2.95839332802146
    O 9.477895312438079 0.70351104634088 -2.95839332823389
    O 9.47851831963837 6.08922385935664 -2.95839332801246
    O -9.693386888406319 -6.61455497750171 -1.11033950032162
    O -9.69276388045159 -1.22884216357093 -1.11033950109926
    O -9.692140872442121 4.1568706500942 -1.11033950071686
    O -9.691517865178829 9.54258346344257 -1.11033950010236
    O -4.79900008116594 -6.61455497828455 -1.1103395003118
    O -4.79837707365199 -1.22884216314717 -1.11033950014359
    O -4.79775406547334 4.15687065047849 -1.11033950009402
    O -4.79713105744418 9.542583462451971 -1.11033950076988
    O 0.09538672567669 -6.61455497804897 -1.11033950158393
    O 0.09600973416310001 -1.22884216452039 -1.11033950055088
    O 0.09663274215684001 4.15687064899349 -1.11033950078661
    O 0.09725574933568 9.54258346403768 -1.11033950031431
    O 4.98977353315469 -6.6145549786787 -1.1103395015099
    O 4.99039654139694 -1.2288421641251 -1.11033950069791
    O 4.99101954899001 4.15687064883627 -1.11033950061793
    O 4.99164255549903 9.542583464188921 -1.11033950065884
    O -8.106901524854869 -8.2302995299586 -2.54397959327311
    O -8.10627851648627 -2.84458671605508 -2.54397959367563
    O -8.1056555080244 2.54112609806473 -2.54397959417347
    O -8.10503250131263 7.92683891084335 -2.54397959323618
    O -3.21251471785848 -8.23029953026137 -2.54397959345181
    O -3.21189171017609 -2.8445867165675 -2.54397959306397
    O -3.21126870139229 2.54112609776608 -2.54397959319863
    O -3.21064569267206 7.92683891045246 -2.54397959362087
    O 1.68187209001121 -8.2302995300932 -2.54397959422233
    O 1.68249509776866 -2.84458671634993 -2.54397959401025
    O 1.68311810564803 2.54112609603481 -2.54397959352205
    O 1.68374111352789 7.92683891153237 -2.54397959366541
    O 6.57625889725626 -8.230299529739449 -2.54397959486461
    O 6.57688190496383 -2.84458671629296 -2.54397959383322
    O 6.57750491295419 2.54112609661541 -2.54397959351241
    O 6.57812791980933 7.92683891064513 -2.54397959282505
    Si -5.67916879000683 -5.29103466667476 -1.50965231529995
    Si -5.67854578265451 0.09467814827632 -1.50965231544384
    Si -5.6779227742961 5.48039096191424 -1.50965231511655
    Si -5.67729976654857 10.86610377395196 -1.50965231535369
    Si -0.78478198316711 -5.29103466651924 -1.50965231599515
    Si -0.78415897483212 0.09467814683876 -1.50965231530954
    Si -0.78353596664939 5.48039096073301 -1.50965231542775
    Si -0.78291295994806 10.86610377548174 -1.50965231490675
    Si 4.1096048243888 -5.29103466684975 -1.50965231561908
    Si 4.11022783227746 0.09467814707789 -1.50965231565066
    Si 4.11085083983807 5.48039095997509 -1.50965231586041
    Si 4.1114738470006 10.86610377591288 -1.5096523158875
    Si 9.00399163095331 -5.2910346660982 -1.50965231548619
    Si 9.004614638841231 0.09467814788433 -1.50965231604132
    Si 9.005237646355731 5.48039096127891 -1.50965231547245
    Si 9.00586065400773 10.86610377466455 -1.50965231527853
    Si -9.18081403003241 -8.874815400246449 -3.60029070174004
    Si -9.180191021407589 -3.48910258679128 -3.60029070225603
    Si -9.179568013295089 1.89661022722064 -3.60029070241089
    Si -9.1789450061813 7.28232304034867 -3.60029070204377
    Si -4.28642722323222 -8.87481540045748 -3.60029070200563
    Si -4.28580421488764 -3.48910258722669 -3.60029070188911
    Si -4.28518120630684 1.89661022726691 -3.60029070199785
    Si -4.28455819810392 7.28232304031848 -3.60029070209549
    Si 0.60795958445207 -8.87481540039434 -3.60029070244849
    Si 0.60858259247152 -3.48910258683903 -3.60029070233456
    Si 0.60920560032829 1.89661022581119 -3.60029070214799
    Si 0.6098286085533799 7.2823230403934 -3.60029070227485
    Si 5.50234639160161 -8.874815400070929 -3.60029070282369
    Si 5.50296939953551 -3.48910258667639 -3.60029070198996
    Si 5.50359240746516 1.89661022664694 -3.60029070198657
    Si 5.50421541532922 7.2823230400002 -3.60029070181364
    Si -8.16011594240037 -7.12133011352572 -1.33865661425852
    Si -8.15949293441054 -1.73561729949919 -1.33865661511087
    Si -8.15886992608886 3.65009551462364 -1.33865661521027
    Si -8.158246919097859 9.035808327182609 -1.33865661435477
    Si -3.2657291350074 -7.12133011390089 -1.33865661450212
    Si -3.26510612766915 -1.73561729957857 -1.33865661436873
    Si -3.26448311936456 3.65009551445273 -1.33865661436833
    Si -3.2638601110554 9.0358083271783 -1.33865661465551
    Si 1.62865767195819 -7.12133011372273 -1.33865661534406
    Si 1.62928068039451 -1.7356173002698 -1.33865661494249
    Si 1.62990368810625 3.65009551267693 -1.33865661479945
    Si 1.63052669557824 9.03580832815935 -1.33865661487396
    Si 6.52304447950537 -7.1213301140802 -1.33865661564742
    Si 6.52366748752604 -1.73561729974391 -1.33865661517783
    Si 6.52429049524245 3.65009551306704 -1.33865661458628
    Si 6.52491350145979 9.035808327587739 -1.33865661432177
    O -9.809821586476209 -5.9090872869885 -6.13318175822064
    O -9.809198578299331 -0.52337447372348 -6.13318175837905
    O -9.808575570345139 4.86233834021781 -6.13318175858446
    O -9.80795256250167 10.24805115365639 -6.13318175792701
    O -4.91543477936131 -5.90908728702246 -6.13318175836631
    O -4.91481177153373 -0.52337447340693 -6.13318175799439
    O -4.9141887631171 4.86233833999841 -6.13318175850902
    O -4.91356575546915 10.24805115367459 -6.1331817584735
    O -0.02104797210519 -5.90908728698768 -6.13318175836201
    O -0.02042496451496 -0.52337447389169 -6.13318175831111
    O -0.01980195615549 4.86233834017351 -6.13318175845154
    O -0.0191789482595 10.24805115348736 -6.13318175828165
    O 4.87333883487543 -5.90908728672888 -6.13318175813361
    O 4.87396184287696 -0.52337447337112 -6.1331817583255
    O 4.87458485083141 4.86233833992837 -6.13318175817533
    O 4.87520785849881 10.24805115332625 -6.1331817585432
    O -8.294740987517571 -9.47952781203009 -4.827560055439
    O -8.29411797910598 -4.09381499861034 -4.8275600559261
    O -8.2934949711715 1.29189781520539 -4.82756005604671
    O -8.292871963439721 6.67761062881497 -4.82756005569247
    O -3.40035418063924 -9.47952781223565 -4.82756005563059
    O -3.39973117221899 -4.09381499886807 -4.82756005571875
    O -3.39910816405413 1.29189781516724 -4.82756005565172
    O -3.39848515586837 6.67761062840776 -4.82756005589231
    O 1.49403262675999 -9.47952781240209 -4.82756005608756
    O 1.49465563497446 -4.09381499859562 -4.82756005607726
    O 1.49527864272913 1.29189781400937 -4.82756005596833
    O 1.49590165119754 6.67761062869552 -4.82756005596648
    O 6.38841943368531 -9.47952781201813 -4.82756005673636
    O 6.38904244215757 -4.09381499856383 -4.82756005562825
    O 6.38966544990406 1.29189781502411 -4.82756005571346
    O 6.39028845802651 6.67761062833931 -4.82756005552237
    O -10.17306911917095 -7.67929605311536 -4.1226047651907
    O -10.17244611080409 -2.29358323973823 -4.12260476550417
    O -10.1718231026687 3.09212957423321 -4.12260476575102
    O -10.17120009555275 8.477842387482101 -4.12260476542703
    O -5.27868231233012 -7.67929605340516 -4.12260476545694
    O -5.2780593041532 -2.29358324003036 -4.12260476526688
    O -5.27743629556607 3.09212957418496 -4.12260476562005
    O -5.27681328721068 8.477842387577549 -4.12260476544787
    O -0.38429550457319 -7.67929605319478 -4.12260476577254
    O -0.38367249686305 -2.29358323984149 -4.12260476543158
    O -0.38304948833045 3.09212957342486 -4.12260476555414
    O -0.38242648080403 8.477842387320701 -4.12260476569216
    O 4.51009130234643 -7.67929605284541 -4.12260476571766
    O 4.51071431058609 -2.29358323957759 -4.12260476561079
    O 4.51133731813438 3.09212957354931 -4.12260476537156
    O 4.51196032627875 8.477842386994521 -4.1226047653879
    O -7.68634310508398 -10.20624539514357 -7.318360303997
    O -7.68572009699175 -4.82053258207544 -7.31836030460739
    O -7.68509708877354 0.56518023168577 -7.31836030419464
    O -7.68447408103289 5.95089304559149 -7.31836030414994
    O -2.79195629794476 -10.20624539526267 -7.31836030433529
    O -2.79133328960824 -4.82053258220197 -7.31836030437252
    O -2.79071028172142 0.5651802318381 -7.31836030409374
    O -2.79008727349263 5.95089304503761 -7.31836030405896
    O 2.10243050970656 -10.20624539597654 -7.31836030426228
    O 2.10305351742429 -4.82053258187505 -7.31836030444799
    O 2.10367652563088 0.5651802313441 -7.31836030430035
    O 2.10429953332818 5.95089304535505 -7.31836030438286
    O 6.99681731626861 -10.20624539545167 -7.31836030469642
    O 6.99744032443399 -4.82053258171881 -7.31836030405559
    O 6.99806333254959 0.56518023188626 -7.31836030389257
    O 6.99868634072752 5.95089304518022 -7.318360303888
    O -7.35938244193946 -6.54464235263122 -5.26764328611814
    O -7.35875943395954 -1.15892953893809 -5.26764328562335
    O -7.35813642560325 4.22678327508515 -5.26764328586332
    O -7.35751341755104 9.612496088480119 -5.26764328534407
    O -2.46499563457162 -6.54464235242954 -5.26764328592878
    O -2.46437262696735 -1.15892953877823 -5.26764328566234
    O -2.46374961820867 4.22678327475847 -5.26764328553067
    O -2.46312661081019 9.61249608824051 -5.2676432862421
    O 2.42939117234567 -6.54464235226515 -5.26764328565185
    O 2.43001418052914 -1.15892953936144 -5.26764328637217
    O 2.4306371883096 4.22678327480761 -5.26764328568609
    O 2.43126019639603 9.612496087902221 -5.26764328559355
    O 7.32377797950163 -6.5446423523227 -5.26764328556771
    O 7.32440098751378 -1.15892953886045 -5.26764328571539
    O 7.32502399561842 4.22678327459506 -5.26764328580928
    O 7.32564700311251 9.612496088375201 -5.26764328604797
    O -5.90840624478914 -8.33194075627563 -6.65646093224973
    O -5.90778323722619 -2.94622794263211 -6.656460931989
    O -5.90716022881468 2.43948487114444 -6.65646093237769
    O -5.9065372208745 7.82519768438766 -6.65646093218847
    O -1.01401943776892 -8.33194075605353 -6.65646093250698
    O -1.01339643035416 -2.94622794260577 -6.65646093224241
    O -1.01277342177597 2.43948487117282 -6.65646093249371
    O -1.01215041375115 7.8251976843105 -6.65646093231053
    O 3.88036736906216 -8.331940755921019 -6.6564609323542
    O 3.88099037756809 -2.94622794253965 -6.65646093254517
    O 3.88161338500144 2.43948487095724 -6.65646093226446
    O 3.88223639325399 7.82519768437507 -6.65646093237016
    O 8.77475417608311 -8.331940756060471 -6.65646093223455
    O 8.775377184134109 -2.94622794253264 -6.65646093229453
    O 8.77600019257539 2.43948487095958 -6.65646093236693
    O 8.776623200029469 7.82519768458835 -6.65646093230024
    Si -8.286234795111859 -5.3410885765683 -5.8808617143603
    Si -8.28561178712531 0.04462423690037 -5.88086171424649
    Si -8.284988779185509 5.43033705082392 -5.88086171412278
    Si -8.284365771150361 10.81604986424337 -5.88086171381236
    Si -3.39184798793147 -5.34108857668213 -5.88086171435719
    Si -3.39122498015532 0.04462423716299 -5.8808617140446
    Si -3.39060197183297 5.43033705036779 -5.88086171403481
    Si -3.3899789641362 10.8160498641482 -5.88086171429222
    Si 1.50253881915819 -5.34108857653826 -5.88086171440787
    Si 1.50316182691446 0.04462423630669 -5.88086171456856
    Si 1.50378483515107 5.43033705069992 -5.88086171432107
    Si 1.50440784318156 10.8160498637134 -5.88086171432983
    Si 6.39692562625097 -5.34108857646134 -5.88086171404046
    Si 6.39754863411147 0.0446242369896 -5.88086171405975
    Si 6.39817164218132 5.43033705038627 -5.88086171401059
    Si 6.39879464977374 10.81604986392776 -5.88086171482643
    Si -6.39256989779408 -9.30747263655986 -7.93487859375922
    Si -6.39194688979408 -3.92175982302408 -7.93487859375922
    Si -6.39132388179408 1.4639529905117 -7.93487859375922
    Si -6.39070087379408 6.84966580404748 -7.93487859375922
    Si -1.49818309072904 -9.30747263655986 -7.93487859375922
    Si -1.49756008272904 -3.92175982302408 -7.93487859375922
    Si -1.49693707472904 1.4639529905117 -7.93487859375922
    Si -1.49631406672904 6.84966580404748 -7.93487859375922
    Si 3.39620371633601 -9.30747263655986 -7.93487859375922
    Si 3.39682672433601 -3.92175982302408 -7.93487859375922
    Si 3.39744973233601 1.4639529905117 -7.93487859375922
    Si 3.39807274033601 6.84966580404748 -7.93487859375922
    Si 8.29059052340105 -9.30747263655986 -7.93487859375922
    Si 8.29121353140105 -3.92175982302408 -7.93487859375922
    Si 8.29183653940105 1.4639529905117 -7.93487859375922
    Si 8.29245954740105 6.84966580404748 -7.93487859375922
    Si -5.85956264238953 -7.13451523337005 -5.54772692835549
    Si -5.85893963453529 -1.74880241990149 -5.54772692789665
    Si -5.85831662615994 3.63691039392365 -5.54772692838083
    Si -5.85769361810653 9.022623207273529 -5.54772692811945
    Si -0.96517583508805 -7.13451523329673 -5.54772692846204
    Si -0.96455282762157 -1.74880242006916 -5.54772692801744
    Si -0.96392981886964 3.63691039367791 -5.54772692825865
    Si -0.9633068113252 9.022623207151121 -5.54772692846121
    Si 3.9292109717868 -7.13451523303875 -5.54772692843461
    Si 3.92983398017763 -1.74880241991745 -5.54772692858395
    Si 3.93045698778216 3.6369103936456 -5.54772692817889
    Si 3.93107999576715 9.022623206966299 -5.54772692824933
    Si 8.823597778881259 -7.13451523333876 -5.54772692821022
    Si 8.824220786849191 -1.74880241989099 -5.54772692823848
    Si 8.824843795138641 3.63691039383446 -5.54772692854666
    Si 8.82546680261362 9.022623207291231 -5.5477269283092
    H -8.320473788768251 -8.51855067746448 0.3346385375165
    H -8.319850780058671 -3.13283786355248 0.33463853720893
    H -8.319227772541799 2.25287495053993 0.33463853810592
    H -8.31860476595222 7.63858776250987 0.33463853751765
    H -3.42608698089755 -8.5185506786346 0.33463853910813
    H -3.42546397383042 -3.13283786226093 0.33463853912477
    H -3.42484096706752 2.25287495089187 0.33463853742093
    H -3.42421795770961 7.63858776199549 0.33463853809057
    H 1.4682998250593 -8.518550678150911 0.33463853696169
    H 1.46892283447882 -3.13283786623178 0.33463853695345
    H 1.46954584141057 2.2528749488601 0.33463853765063
    H 1.47016884999052 7.63858776469857 0.33463853746558

CELL_PARAMETERS angstrom
  19.57754723 0.0 0.0
  0.00249203 21.54285125 0.0
  0.0 0.0 35.0

K_POINTS automatic
  2 2 1 0 0 0
