echo

start molecule

title "Title"
charge 0

geometry units angstroms print
 zmatrix
 Mg
  O    1    r2
 variables
   r2        2.15000
 end
end

basis
  * library 6-31G*
end

dft
  xc b3lyp
  mult 1
end

property
  dipole
  mulliken
end

task dft optimize
task dft property
task dft freq
