echo

start molecule

title "voda_b3lyp_geomopt"
charge 0

geometry units angstroms print xyz autosym
   O       -4.16760       -3.90046        1.13967
   H       -3.17827       -3.86394        1.16209
   H       -4.45696       -3.09343        1.63521
end

basis
  * library 6-31G*
end

dft
  xc b3lyp
  mult 1
end

task dft optimize
