&CONTROL
  calculation = "relax"
  etot_conv_thr =   1.0d-08
  forc_conv_thr =   1.0d-4
  pseudo_dir    = "./"
  verbosity = 'low'
  nstep = 2
/

&SYSTEM
  smearing = 'gauss'
  ecutwfc =  60
  ibrav = 0
  nat = 55
  nosym = .false.
  ntyp = 2
  occupations = 'smearing'
  degauss = 0.02
  assume_isolated = '2D'
  noncolin= .true.
  lspinorb= .true.
/

&ELECTRONS
  mixing_beta = 0.2
  diagonalization = 'david'
  conv_thr =   1.D-9
  electron_maxstep = 100
  startingpot      = "atomic"
  startingwfc      = "atomic+random"
/

&IONS
  ion_dynamics = "bfgs"
/

ATOMIC_SPECIES
    Se     78.96 Se_r.upf
    Fl     289.0 Fl-6spd_r.upf

ATOMIC_POSITIONS angstrom
Se               1.6508891315        1.6837469017        3.7833800375    0   0   0
Se               3.7825737933        1.5953273949        7.4364673453
Se               3.1642919993        3.3592241142        2.8896998588    0   0   0
Se               0.9653176947        3.3745222496        6.6101431629
Se               1.7096930034        0.0137894932        2.0725911422    0   0   0
Se               3.7595768074       -0.0588717393        5.6993318634
Se               6.0005782781        1.6837487630        3.7833778388    0   0   0
Se               8.2815468604        1.6506103316        7.4418519363
Se               7.5139785082        3.3592256570        2.8896932891    0   0   0
Se               5.2215543714        3.3022534479        6.6244498053
Se               6.0593769531        0.0137906478        2.0725890956    0   0   0
Se               8.2441131122       -0.0084581740        5.7334761194
Se              10.3502724514        1.6837465223        3.7833710186    0   0   0
Se              12.5564239231        1.6623916155        7.3910860690
Se              11.8636766103        3.3592235671        2.8896932602    0   0   0
Se               9.6955176413        3.3848617966        6.6053379455
Se              10.4090773600        0.0137883654        2.0725834475    0   0   0
Se              12.5785054149        0.1053008130        5.5709420839
Se               1.6506855375        6.7280182182        3.7833117340    0   0   0
Se               3.4478291301        6.5065882763        7.3731619155
Se               3.1639926932        8.4039276883        2.8898890194    0   0   0
Se               0.9084968936        8.3811098112        6.6130220258
Se               1.7096973664        5.0585201930        2.0721673571    0   0   0
Se               3.6880439499        4.8818192651        5.6228559556
Se               6.0003746542        6.7280201319        3.7833094929    0   0   0
Se               8.2744344786        6.7813425908        7.3637780827
Se               7.5136792004        8.4039291964        2.8898825031    0   0   0
Se               4.8250858170        8.2587604608        6.5742309102
Se               6.0593813340        5.0585212997        2.0721652760    0   0   0
Se               8.1668151590        5.0522779866        5.7172019995
Se              10.3500690377        6.7280178865        3.7833025820    0   0   0
Se              12.4803564399        6.6781997295        7.4408122666
Se              11.8633773323        8.4039271251        2.8898823950    0   0   0
Se               9.9044326250        8.3455242727        6.5510038004
Se              10.4090817311        5.0585189658        2.0721595301    0   0   0
Se              12.5025513579        5.0399727416        5.6953143099
Se               1.6506538675       11.7727124308        3.7839128968    0   0   0
Se               3.2178698707       11.6698829509        7.3078765645
Se               3.1642562799       13.4480706906        2.8903550029    0   0   0
Se               1.0727994628       13.5404573975        6.4251069839
Se               1.7094434988       10.1032963955        2.0726019891    0   0   0
Se               3.4120137244        9.9889756032        5.5622126906
Se               6.0003428289       11.7727143070        3.7839105841    0   0   0
Se               8.9907369542       11.7841862659        7.3764894499
Se               7.5139427049       13.4480722022        2.8903484928    0   0   0
Se               4.9748781617       13.2174894981        6.7716697480
Se               6.0591274158       10.1032975129        2.0725999284    0   0   0
Se               8.5304608996       10.1387689593        5.6591375068
Se              10.3500372389       11.7727120227        3.7839038076    0   0   0
Se              12.6003381174       11.8611182873        7.2989768897
Se              11.8636409029       13.4480700929        2.8903483656    0   0   0
Se              10.0885219287       13.6472456628        6.3736375950
Se              10.4088279598       10.1032953896        2.0725941285    0   0   0
Se              12.5087491455       10.1100923189        5.6672599711
Fl               6.2682459750       10.5663179329        8.1208095246

CELL_PARAMETERS angstrom
  13.049072483   0.000001159   0.000000000
   0.000000444  15.133480000   0.000000000
   0.000000000   0.000000000  17.485799789

K_POINTS automatic
  2 2 1 0 0 0


