# 
# This is the geometry file that corresponds to the current relaxation step.
# If you do not want this file to be written, set the "write_restart_geometry" flag to .false.
#  aims_uuid : DCC5430C-2AF2-4DE1-A85C-335B727EAF40                                
# 
lattice_vector      1.99456569      1.99456597     -0.00000026
lattice_vector      0.00000053      1.99456646      1.99456646
lattice_vector      1.99456569     -0.00000026      1.99456597
atom       0.00000000      0.00000000      0.00000000 Al
# 
# What follows is the current estimated Hessian matrix constructed by the BFGS algorithm.
# This is NOT the true Hessian matrix of the system.
# If you do not want this information here, switch it off using the "hessian_to_restart_geometry" keyword.
# 
trust_radius             0.2000000030
hessian_file
