&CONTROL
   calculation      = 'relax'
   etot_conv_thr    =  1.0d-8
   forc_conv_thr    =  1.0d-4
   verbosity        = 'low'
   tstress          = .true.
   tprnfor          = .true.
   outdir           = './tmp'
   prefix           = 'c_hg'
   pseudo_dir       = './'
/
&SYSTEM
   ibrav            = 0
   nat              = 9
   ntyp             = 2
   ecutwfc          = 65
   occupations      = 'smearing'
   degauss          = 0.01
   smearing         = 'gauss'
   assume_isolated  = '2D'
   vdw_corr         = 'DFT-D3'
   starting_magnetization(1) = 0.0
   starting_magnetization(2) = 0.0
/
&ELECTRONS
   conv_thr         = 1e-10
/
&IONS
/
&CELL
/
&FCP
/
&RISM
/
ATOMIC_SPECIES
C 12.011 C.upf
Hg 200.592 Hg.upf

K_POINTS automatic
2 2 1  0 0 0

CELL_PARAMETERS angstrom
4.91200017930000 0.00000000000000 0.00000000000000
-2.45600065610000 4.25391661160000 0.00000000000000
0.00000000000000 0.00000000000000 15.00000000000000

ATOMIC_POSITIONS angstrom
C   0.0000000000000000  0.0000470574867644   7.4267968226954775
C  -1.2279594963498339  2.1269347053883405   7.4267968226954775
C   2.4560000899999999  0.0000000000000000   7.4299244612953963
C   1.2279589303498339  2.1269347053883378   7.4267968226954677
C   1.2279645054112907  0.7090065990139333   7.4284076745439043
C  -0.0000003780000000  2.8359033388838224   7.4284076745439043
C   3.6840353385887141  0.7090065990139333   7.4284076745439043
C   2.4559997120000001  2.8359442389999998   7.4256602058196215
Hg  2.4559997120000001  2.8359442389999998  11.0788018647677582

