echo

start molecule

title "Title"
charge 0

geometry units angstroms print xyz autosym
   S       -1.32330       -1.31570       -0.76750
   P       -3.10690       -0.97000        0.28170
   O       -3.43260        0.61520        0.39520
   O       -3.05950       -1.62550        1.63670
   N        2.38810       -0.27850        0.47450
   C        3.70720       -0.50690       -0.11660
   C        2.17040        1.15140        0.69650
   C        1.34120       -0.82970       -0.38060
   C       -0.01920       -0.63840        0.27830
   C        3.96350       -2.00690       -0.22250
   C        3.79690        0.16260       -1.48500
   C        3.24180        1.68760        1.64060
   C        2.18550        1.90150       -0.63250
   C       -4.46900       -1.61530       -0.68940
   C       -3.53810        1.42310       -0.76320
   C       -3.84610        2.84540       -0.34610
   H        4.51130       -0.13790        0.52800
   H        1.22900        1.33000        1.22360
   H        1.28930       -0.46590       -1.40720
   H        1.47220       -1.91560       -0.46030
   H       -0.05820       -1.12620        1.25800
   H       -0.29670        0.40980        0.40060
   H        3.72360       -2.52460        0.71320
   H        5.02730       -2.18760       -0.41980
   H        3.41510       -2.48450       -1.04130
   H        4.55810       -0.40750       -2.04530
   H        2.96290        0.10380       -2.18200
   H        4.28990        1.13550       -1.46360
   H        3.35790        1.04960        2.52420
   H        2.94380        2.67920        2.00320
   H        4.22130        1.82190        1.17060
   H        1.53740        2.77620       -0.44500
   H        3.11490        2.42060       -0.87510
   H        1.67360        1.47780       -1.49580
   H       -5.42350       -1.36040       -0.22070
   H       -4.39860       -2.70510       -0.75360
   H       -4.46190       -1.21800       -1.70760
   H       -2.59680        1.39460       -1.31910
   H       -4.34070        1.04990       -1.40450
   H       -3.93480        3.49840       -1.21880
   H       -4.78080        2.88680        0.22290
   H       -3.05820        3.23440        0.30750
end

basis
  * library 3-21G
end

dft
  xc b3lyp
  mult 1
end

task dft energy

