!r2SCAN-3c OPT FREQ

%ELPROP
   POLAR 1
END

*XYZFILE 0 1 structure.xyz
