&control
    calculation = 'scf'
    prefix = 'si'
!    pseudo_dir = '/data.local1/milias/software/quantum-epresso/q-e-qe-6.5/pseudo'
    pseudo_dir = './'
/

&system
    ibrav=2, celldm(1) =10.20, 
    nat=2, ntyp=1,
    ecutwfc=100.0
/
&electrons
/
ATOMIC_SPECIES
 Si  28.086  Si_r.upf
ATOMIC_POSITIONS (alat)
 Si 0.00 0.00 0.00
 Si 0.25 0.25 0.25
K_POINTS (automatic)
  24 24 24 0 0 0
