echo

start molecule

print low

title "Bi@Quartz ecp"
charge 0

geometry units angstroms print xyz autosym
  load format xyz BiQgeo-080_convereged.xyz
end

basis
 * library lanl2dz_ecp
end

ecp 
  Si library lanl2dz_ecp
  Bi library lanl2dz_ecp
end

dft
  rodft
  mult 4
  xc b3lyp
  maxiter 100
end

task dft energy
task dft frequencies

