&CONTROL
  calculation = "scf"
!  etot_conv_thr =   1.0d-06
!  forc_conv_thr =   1.0d-3
  pseudo_dir    = "./"
  verbosity = 'low'
!  nstep = 200
/

&SYSTEM
  smearing = 'gauss'
  ecutwfc =  80
  ibrav = 0
  nat = 1
  nosym = .false.
  ntyp = 1
  occupations = 'smearing'
  degauss = 0.02
/

&ELECTRONS
  mixing_beta = 0.3
  diagonalization = 'david' 
!  conv_thr =   1.D-9
  electron_maxstep = 100
  startingpot      = "atomic"
  startingwfc      = "atomic+random"
/

ATOMIC_SPECIES
Fl     289.0 Fl-6spd.upf

ATOMIC_POSITIONS crystal
Fl           0.5000000000       0.5000000000       0.5000000000

K_POINTS automatic
1 1 1 0 0 0

CELL_PARAMETERS angstrom
     10.0000000000       0.0000000000       0.0000000000
      0.0000000000      10.0000000000       0.0000000000
      0.0000000000       0.0000000000      10.0000000000