 $CONTRL COORD=CART UNITS=ANGS $END

 $DATA
11163
C1
O      8.0     -2.5017000000    0.0909000000   -0.5143000000 
O      8.0      2.4120000000   -1.8816000000    0.9605000000 
O      8.0      0.4599000000   -2.2004000000    1.6016000000 
N      7.0     -0.6222000000   -0.8773000000   -0.5011000000 
N      7.0     -1.2441000000    2.2946000000    0.7536000000 
C      6.0      0.7513000000   -1.1304000000   -0.4757000000 
C      6.0     -1.2874000000    0.2395000000   -0.4943000000 
C      6.0     -0.7949000000    1.6052000000   -0.4614000000 
C      6.0      1.2126000000   -1.7629000000    0.7425000000 
H      1.0      0.9679000000   -1.8002000000   -1.3103000000 
H      1.0      1.3577000000   -0.2406000000   -0.6453000000 
H      1.0     -1.1502000000   -1.6508000000   -0.5222000000 
H      1.0     -1.1727000000    2.1465000000   -1.3310000000 
H      1.0      0.2898000000    1.6887000000   -0.4923000000 
H      1.0     -0.8404000000    3.2340000000    0.7420000000 
H      1.0     -0.8407000000    1.8048000000    1.5556000000 
H      1.0      3.0032000000   -1.5601000000    0.3921000000 
 $END


