echo

start molecule

memory total 40 gb

print low

title "der2"
charge 0

dft
  mult 1
end

geometry units angstroms print xyz autosym
  load format xyz der2.geopt_freq_nmr_pbe0_tz2p_good_cosmo-chcl3_converged_geometry.xyz
end

basis
  * library 6-311++G(2d,2p)
end

dft
  direct
  grid fine
  xc pbe0
  mult 1
# Reduce output during geometry optimization
  noprint "final vectors analysis"
end

#end

driver
  tight
  maxiter 9999
  xyz der2_pbe0_geom_6-311++g2d_2p
end

cosmo
  solvent chcl3
end

task dft optimize
