%chk=sarin.chk
%mem=1GB
%nproc=8
#p opt freq B3LYP/STO-3G SCF=(conver=8)

sarin simple run

0 1
C                  1.50798921    0.12130433   -0.01624342
H                  1.06916327    1.09152937   -0.12110119
C                  2.40758366    0.09712277    1.23345458
H                  1.82064611    0.32039129    2.09980063
H                  2.84488566   -0.87367232    1.33939728
H                  3.18226188    0.82784791    1.12946210
C                  2.35328191   -0.19729319   -1.26347070
H                  2.79241000   -1.16736364   -1.15844763
H                  1.72816675   -0.18085952   -2.13172237
H                  3.12658250    0.53498050   -1.36682170
O                  0.47420547   -0.85705689    0.12159888
P                 -1.09624192   -0.06472611    0.06237955
F                 -1.20922589    1.04889289    1.31517137
C                 -1.28786996    0.81766998   -1.57516612
H                 -0.99207342    0.16425084   -2.36917358
H                 -2.31059912    1.10204100   -1.70954687
H                 -0.67058539    1.69161835   -1.58376890
O                 -2.36796866   -1.26953453    0.23193120

 1 2 1.0 3 1.0 7 1.0 11 1.0
 2
 3 4 1.0 5 1.0 6 1.0
 4
 5
 6
 7 8 1.0 9 1.0 10 1.0
 8
 9
 10
 11 12 1.0
 12 13 1.0 14 1.0 18 1.0
 13
 14 15 1.0 16 1.0 17 1.0
 15
 16
 17
 18

