POSCAR
 1.00000000
   14.56400013   0.00000000   0.00000000
   -0.00000067   15.36970043   0.00000000
   -0.00000200   -0.00000200   45.77890015
   H   C   N   O   P   U
   72   24   12   6   4   1
Direct
  0.54149997  0.38049999  0.67229998
  0.63789999  0.37770000  0.65710002
  0.60810000  0.30230001  0.67809999
  0.46079999  0.20950000  0.65850002
  0.43660000  0.22540000  0.62559998
  0.41069999  0.29530001  0.64910001
  0.51080000  0.11270000  0.57179999
  0.52859998  0.11980000  0.60549998
  0.61140001  0.12120000  0.58359998
  0.46050000  0.23899999  0.54860002
  0.47729999  0.33160001  0.56190002
  0.40849999  0.26740000  0.57700002
  0.54290003  0.51670003  0.60360003
  0.50199997  0.44600001  0.62459999
  0.46980000  0.45039999  0.59189999
  0.63090003  0.40140000  0.55350000
  0.71710002  0.39430001  0.57380003
  0.66450000  0.48289999  0.57110000
  1.04110003  0.31979999  0.71329999
  0.96310002  0.29510000  0.69120002
  0.96950001  0.39019999  0.70340002
  1.08210003  0.49470001  0.67170000
  1.17299998  0.44330001  0.66549999
  1.13499999  0.44980001  0.69749999
  1.20330000  0.13200000  0.62980002
  1.09560001  0.13079999  0.63020003
  1.15069997  0.08840000  0.65590000
  1.19850004  0.27200001  0.69370002
  1.27409995  0.25150001  0.67040002
  1.23119998  0.17590000  0.68889999
  1.09099996  0.47049999  0.61210001
  1.01610005  0.40040001  0.60500002
  1.09899998  0.41429999  0.58370000
  1.23360002  0.32280001  0.59069997
  1.25940001  0.29499999  0.62269998
  1.26209998  0.39350000  0.61369997
  0.66490000  0.04290000  0.64579999
  0.65210003  0.14090000  0.65439999
  0.59630001  0.06850000  0.67070001
  0.68349999  -0.01900000  0.70959997
  0.79079998  -0.01330000  0.70779997
  0.73509997  -0.05460000  0.68199998
  0.65609998  0.14110000  0.75160003
  0.61220002  0.12500000  0.72079998
  0.59320003  0.21230000  0.73740000
  0.70359999  0.33450001  0.72770000
  0.80650002  0.30559999  0.72520000
  0.75029999  0.28400001  0.75349998
  0.89760000  0.05070000  0.74589998
  0.82539999  0.12420000  0.75180000
  0.93049997  0.14620000  0.75169998
  1.01080000  0.12610000  0.69919997
  0.94340003  0.11230000  0.67290002
  0.96060002  0.03670000  0.69520003
  1.03199995  0.13930000  0.50709999
  0.92629999  0.12400000  0.51120001
  0.99710000  0.06880000  0.52920002
  1.06869996  0.13220000  0.57239997
  1.05139995  0.23060000  0.57959998
  1.11670005  0.20469999  0.55379999
  0.95980000  0.47700000  0.54710001
  0.86170000  0.43520001  0.54890001
  0.89950001  0.46840000  0.51889998
  1.00010002  0.37300000  0.49110001
  1.05040002  0.29769999  0.50779998
  1.07369995  0.39489999  0.51499999
  0.70539999  0.19900000  0.54820001
  0.78899997  0.13530000  0.55129999
  0.73360002  0.13920000  0.52190000
  0.78920001  0.22710000  0.48550001
  0.83499998  0.31690001  0.49270001
  0.73189998  0.30050001  0.50080001
  0.58710003  0.34320000  0.66380000
  0.45550001  0.25270000  0.64349997
  0.54879999  0.13860001  0.58660001
  0.46509999  0.27169999  0.56639999
  0.52100003  0.45789999  0.60490000
  0.65789998  0.42080000  0.57139999
  1.00399995  0.34029999  0.69730002
  1.11800003  0.44499999  0.67720002
  1.14970005  0.13519999  0.64200002
  1.21899998  0.23060000  0.67949998
  1.08029997  0.41409999  0.60380000
  1.23070002  0.33919999  0.61100000
  0.65390003  0.08230000  0.66170001
  0.73490000  -0.01020000  0.69679999
  0.63810003  0.16810000  0.73350000
  0.74710000  0.28999999  0.73259997
  0.88349998  0.11110000  0.74290001
  0.95490003  0.09850000  0.69300002
  0.98479998  0.12500000  0.52090001
  1.06180000  0.18930000  0.56419998
  0.91570002  0.44139999  0.53700000
  1.02569997  0.35530001  0.50950003
  0.75620002  0.17270000  0.53810000
  0.79149997  0.27430001  0.49930000
  0.54710001  0.29640001  0.63900000
  0.54180002  0.23600000  0.58459997
  0.59770000  0.39550000  0.59630001
  1.06470001  0.36489999  0.67259997
  1.14919996  0.21890000  0.65770000
  1.13339996  0.34880000  0.61989999
  0.72770000  0.07420000  0.68320000
  0.71829998  0.20739999  0.71969998
  0.87860000  0.12980001  0.71100003
  0.98329997  0.18990000  0.54400003
  0.95510000  0.35600001  0.53140002
  0.81889999  0.24190000  0.52719998
  0.88499999  0.28790000  0.57709998
  0.80379999  0.22270000  0.67140001
  0.84939998  0.14590000  0.61460000
  0.83730000  0.36899999  0.63200003
  0.69290000  0.26230001  0.60970002
  0.99199998  0.25569999  0.63690001
  0.59560001  0.29570001  0.60710001
  1.08369994  0.29750001  0.64631999
  0.78240001  0.15979999  0.69590998
  0.90730000  0.26850000  0.54576999
  0.84280002  0.25766000  0.62413198
