Au Hg
 1.0000000000000000
    11.5399826689644573    0.0000000000000000    0.0000000000000000
     5.7699913344822287    9.9939181505553663    0.0000000000000000
     0.0000000000000000    0.0000000000000000   27.0667672948810178
 Au  Hg 
  64   1
Cartesian
 -0.0010768866116382 -0.0006217407751164  9.8337680030319952
  2.8849956672411143 -0.0009772192293973  9.8322789025139592
  5.7710682210938620 -0.0006217407751163  9.8337680030320023
  8.6549870017233435 -0.0001868359277028  9.8358234083078084
  1.4416515369428311  2.4989681472535410  9.8322789025139627
  4.3283397975393951  2.4989681472535432  9.8322789025139592
  7.2128365943036865  2.4984677285630301  9.8363781939159889
 10.0971374091430022  2.4984677285630301  9.8363781939159818
  2.8849956672411126  4.9982025568279154  9.8337680030320023
  5.7701548206230333  4.9972658597315096  9.8363781939159907
  8.6549870017233435  4.9969590752776831  9.8387789047915941
 11.5398191828236527  4.9972658597315123  9.8363781939159907
  4.3273316962019424  7.4955320308803746  9.8358234083078031
  7.2123052280426858  7.4951436375385088  9.8363781939159907
 10.0976687754039993  7.4951436375385088  9.8363781939159853
 12.9826423072447419  7.4955320308803808  9.8358234083078013
  1.4392438500288820  0.8309478242436842 12.3070817142865554
  4.3307474844533465  0.8309478242436893 12.3070817142865554
  7.2126679773260944  0.8329625771264662 12.3167254922289366
 10.0973060261205863  0.8329625771264693 12.3167254922289420
  2.8849956672411201  3.3350634267903057 12.3070817142865607
  5.7704589552756840  3.3315760311761013 12.3155855661354448
  8.6549870017233435  3.3318942814052623 12.3176980813879471
 11.5395150481710012  3.3315760311761040 12.3155855661354448
  4.3277007408563231  5.8298724088636931 12.3167254922289402
  7.2129985912827275  5.8294914722138884 12.3176980813879471
 10.0969754121639586  5.8294914722138884 12.3176980813879506
 12.9822732625903612  5.8298724088636931 12.3167254922289366
  5.7700197652535712  8.3280422398428904 12.3167254922289402
  8.6549870017233435  8.3277251634808422 12.3155855661354465
 11.5399542381931202  8.3280422398428904 12.3167254922289402
 14.4249783362055730  8.3282651254628064 12.3158049052147689
 -0.0008883191995183  1.6670761056610444 14.7406757722314268
  2.8849956672411143  1.6656530250925565 14.7102474813638544
  5.7708796536817468  1.6670761056610472 14.7406757722314268
  8.6549870017233435  1.6634613139068206 14.7384441911007258
  1.4408212500968518  4.1641903294406104 14.7406757722314268
  4.3291700843853667  4.1641903294406104 14.7406757722314286
  7.2140844093985379  4.1650535757229257 14.7416283811984918
 10.0958895940481472  4.1650535757229301 14.7416283811984918
  2.8849956672411143  6.6628949837429063 14.7384921270681684
  5.7680932569176182  6.6637079559631127 14.7384441911007364
  8.6549870017233435  6.6607700743871909 14.7416283811984989
 11.5418807465290705  6.6637079559631092 14.7384441911007276
  4.3272485166746373  9.1609501963227498 14.7384921270681684
  7.2132774324269660  9.1596107907313797 14.7406757722314268
 10.0966965710197112  9.1596107907313868 14.7406757722314321
 12.9827254867720416  9.1609501963227604 14.7384921270681684
 -0.0080191106901659 -0.0046298357156326 17.2163111294228486
  2.8849956672411143 -0.0309839574680590 17.1774789875249922
  5.7780104451723995 -0.0046298357156283 17.2163111294228486
  8.6549870017233435 -0.0020435795643410 17.2249521730176411
  1.4156649393434446  2.5139715163728709 17.1774789875249922
  4.3543263951387887  2.5139715163728686 17.1774789875249922
  7.2207783654019950  2.4985669373661477 17.2211405915541427
 10.0891956380446928  2.4985669373661481 17.2211405915541427
  2.8849956672411143  5.0062187467089405 17.2163111294228486
  5.7742116235159626  5.0040940308521202 17.2211405915541427
  8.6549870017233435  4.9969590752776831 17.2282336883925460
 11.5357623799307270  5.0040940308521229 17.2211405915541427
  4.3257237090442962  7.4964604026986903 17.2249521730176411
  7.2084202598373173  7.4882162576147797 17.2211405915541569
 10.1015537436093688  7.4882162576147788 17.2211405915541427
 12.9842502944023916  7.4964604026986956 17.2249521730176411
  2.8849956672411143  1.6656530250925610 19.5821074567382318
