Au Hg
 1.0000000000000000
    11.5399826689644573    0.0000000000000000    0.0000000000000000
     5.7699913344822287    9.9939181505553663    0.0000000000000000
     0.0000000000000000    0.0000000000000000   27.0667672948810178
 Au  Hg 
  64   1
Cartesian
 -0.0000000000000030 -0.0000000000000014  9.8137728988076685
  2.8873810021203905 -0.0003730915555169  9.8260657078189499
  5.7699913344822287  0.0001763435896706  9.8396974614802879
  8.6526016668440597 -0.0003730915555141  9.8260657078189499
  1.4433673942951804  2.5007318440185848  9.8260657078189499
  4.3278228469515296  2.4986696856924775  9.8428808793171427
  7.2121598220129277  2.4986696856924802  9.8428808793171427
 10.0966152746692686  2.5007318440185839  9.8260657078189499
  2.8851483852695599  4.9968709034828498  9.8396974614803021
  5.7699913344822287  4.9965787791704059  9.8428808793171427
  8.6548342836948962  4.9968709034828498  9.8396974614802879
 11.5399826689644573  4.9983775837657598  9.8320812034033960
  4.3259777266570234  7.4935593980922954  9.8260657078189499
  7.2140049423074357  7.4935593980922954  9.8260657078189499
 10.0987132997300506  7.4947293586724850  9.8320812034033960
 12.9812520381988570  7.4947293586724868  9.8320812034033978
  1.4465106792929179  0.8351433300754361 12.2904373627395724
  4.3283548090451092  0.8325983857574595 12.3197734992106049
  7.2116278599193482  0.8325983857574563 12.3197734992106049
 10.0934719896715315  0.8351433300754332 12.2904373627395724
  2.8852287577384272  3.3321660283468750 12.3197734992106049
  5.7699913344822287  3.3313060501851171 12.3245505568507649
  8.6547539112260292  3.3321660283468768 12.3197734992106049
 11.5399826689644573  3.3368983137022443 12.3052688727664439
  4.3268652831755556  5.8291537364510253 12.3197734992106049
  7.2131173857889097  5.8291537364510253 12.3197734992106049
 10.0984111547097850  5.8303203985592091 12.3162901732582863
 12.9815541832191421  5.8303203985592083 12.3162901732583041
  5.7699913344822287  8.3236314904044857 12.2904373627395724
  8.6598300439938392  8.3254689937042450 12.3052688727664492
 11.5399826689644573  8.3271955039923107 12.3162901732582934
 14.4201352939350809  8.3254689937042432 12.3052688727664510
  0.0000000000000019  1.6808948571273015 14.6937318334205127
  2.8839200103217535  1.6650319942806131 14.7424658967779525
  5.7699913344822287  1.6664143818995689 14.7472257154280477
  8.6560626586427034  1.6650319942806127 14.7424658967779418
  1.4437879049495361  4.1670740053509920 14.7434344437687521
  4.3281528551978843  4.1637518843278976 14.7472257154280459
  7.2118298137665722  4.1637518843278949 14.7472257154280459
 10.0961947640149177  4.1670740053509885 14.7434344437687415
  2.8830933388732656  6.6600241445168598 14.7434344437687521
  5.7699913344822287  6.6638541619941396 14.7424658967779543
  8.6568893300912002  6.6600241445168562 14.7434344437687415
 11.5399826689644573  6.6626121003702439 14.7454995979121524
  4.3142936871193749  9.1534707219917131 14.6937318334205056
  7.2256889818450833  9.1534707219917149 14.6937318334205003
 10.1006772350407239  9.1607381512428887 14.7434344437687574
 12.9792881028881908  9.1607381512428887 14.7434344437687574
  0.0000000000000057 -0.0000000000000034 17.0245998889814807
  2.8880268357732106 -0.0007629674927974 17.2241566573928289
  5.7699913344822287 -0.0006353548069451 17.2279918512087207
  8.6519558331912556 -0.0007629674927979 17.2241566573928289
  1.4433526686555818  2.5014860903371843 17.2241566573928289
  4.3253523660315123  2.4972433528682783 17.2259341788291280
  7.2146303029329353  2.4972433528682774 17.2259341788291280
 10.0966300003088651  2.5014860903371865 17.2241566573928289
  2.8844454338378855  4.9972767526811506 17.2279918512087207
  5.7699913344822287  4.9994314448188062 17.2259341788291280
  8.6555372351265625  4.9972767526811532 17.2279918512087384
 11.5399826689644573  4.9947416865373073 17.2265697688484245
  4.3253171673646031  7.4931950277109678 17.2241566573928289
  7.2146655015998586  7.4931950277109696 17.2241566573928289
 10.0955645203646718  7.4965473072867059 17.2265697688484281
 12.9844008175642429  7.4965473072867086 17.2265697688484281
 -0.0000000000000006  0.0000000000000004 19.7425903469410606
