Au Hg
 1.0000000000000000
    11.5399826689644573    0.0000000000000000    0.0000000000000000
     5.7699913344822287    9.9939181505553663    0.0000000000000000
     0.0000000000000000    0.0000000000000000   27.0667672948810178
 Au  Hg 
  64   1
Cartesian
 -0.0004182185465966  0.0001087853140035  9.8302123242887109
  2.8854138857877105  0.0001087853140032  9.8302123242887074
  5.7701090773557686 -0.0004590856526035  9.8357464098636243
  8.6548692588498071 -0.0004590856526003  9.8357464098636278
  1.4424978336205574  2.4998165061400450  9.8342539933074242
  4.3275916612397216  2.4988334554101224  9.8380860662283531
  7.2124891681027856  2.4985626460665431  9.8398470480189619
 10.0973866749658576  2.4988334554101175  9.8380860662283638
  2.8849598425454617  4.9969936552341876  9.8388666999419883
  5.7700961140487506  4.9970265787274455  9.8406656769732894
  8.6548822221568269  4.9970265787274437  9.8406656769732894
 11.5400184936601118  4.9969936552341823  9.8388666999419883
  4.3265866784881259  7.4951044189759175  9.8349250927269054
  7.2124891681027856  7.4950202785140743  9.8342368915623766
 10.0983916577174444  7.4951044189759228  9.8349250927268876
 12.9824805025850143  7.4954210720773888  9.8373299461083832
  1.4424978336205578  0.8347186700558368 12.3052125648396462
  4.3277330511038770  0.8324849054977693 12.3131313088751675
  7.2124891681027865  0.8321024795683402 12.3135810590789365
 10.0972452851016978  0.8324849054977648 12.3131313088751746
  2.8849346269887741  3.3320662653180597 12.3171407196984646
  5.7697949686285801  3.3318309775402430 12.3176138444410892
  8.6551833675769974  3.3318309775402453 12.3176138444410910
 11.5400437092167998  3.3320662653180571 12.3171407196984646
  4.3283434018544478  5.8299552764518694 12.3163978433448662
  7.2124891681027901  5.8316826535023996 12.3195094772985989
 10.0966349343511279  5.8299552764518756 12.3163978433448591
 12.9824805025850161  5.8288382305199917 12.3171806161221795
  5.7680816912054853  8.3277164045780587 12.3090325061947112
  8.6568966450000957  8.3277164045780676 12.3090325061947023
 11.5391351881804471  8.3280344374904640 12.3160434864152819
 14.4258258169895939  8.3280344374904729 12.3160434864152872
 -0.0016038131763553  1.6678863394796222 14.7325257491892199
  2.8865994804174728  1.6678863394796228 14.7325257491892163
  5.7722342858087794  1.6668126591375847 14.7369266183631655
  8.6527440503967767  1.6668126591375838 14.7369266183631531
  1.4424978336205581  4.1604454285492878 14.7470168161575383
  4.3292438574797849  4.1671531481525950 14.7382121688256191
  7.2124891681027865  4.1659723544527560 14.7422035879626900
 10.0957344787257899  4.1671531481525932 14.7382121688256227
  2.8839751660203454  6.6596233670963620 14.7369822518344211
  5.7712133616945014  6.6643360421020379 14.7422692616774782
  8.6537649745110663  6.6643360421020370 14.7422692616774764
 11.5410031701852205  6.6596233670963594 14.7369822518344229
  4.3260624973154567  9.1627704963077310 14.7405806879832877
  7.2124891681027856  9.1587102195787811 14.7144920347500836
 10.0989158388901146  9.1627704963077310 14.7405806879832824
 12.9824805025850143  9.1575385675586709 14.7321284848490333
 -0.0406042662216349 -0.0047214327305071 17.1602369220541533
  2.9255999334627454 -0.0047214327305038 17.1602369220541497
  5.7834880076654738  0.0001037568893876 17.2150569864238996
  8.6414903285400939  0.0001037568893860 17.2150569864238960
  1.4424978336205569  2.4986490294558097 17.2198742315506372
  4.3326399036707537  2.5059399959672697 17.2125815789601972
  7.2124891681027856  2.5036035911323395 17.2222334901640330
 10.0923384325348167  2.5059399959672621 17.2125815789601724
  2.8838987360537125  4.9906733427617143 17.2227003584019691
  5.7715129706683053  5.0005151584061123 17.2236521323273521
  8.6534653655372651  5.0005151584061158 17.2236521323273521
 11.5410796001518587  4.9906733427617089 17.2227003584019691
  4.3208866071882364  7.4830682622376381 17.2178058400551741
  7.2124891681027856  7.4926931573337994 17.2163636258471726
 10.1040917290173393  7.4830682622376470 17.2178058400551741
 12.9824805025850143  7.4895791539376715 17.2183792996370535
  1.4424978336205572  0.0186397557204589 19.6146924936422629
