 &control
    calculation = 'scf'
 /
 &system
    ibrav=  0, nat=  1, ntyp= 1,
    lspinorb=.true.,
    noncolin=.true.,
    occupations='smearing',
    degauss=0.02,
    smearing='mp',
    ecutwfc =80.0,
 /
 &electrons
 /
ATOMIC_SPECIES
Fl  79.90    Pt.rel-pz-n-rrkjus.UPF
ATOMIC_POSITIONS ALAT
Fl  0.0000000   0.00000000   0.0
Fl  0.0000000   0.00000000   2.8
K_POINTS AUTOMATIC
1 1 1 0 0 0
