echo

start molecule

title "VX"
charge 0

geometry units angstroms print xyz autosym
  load format xyz VX_geom_clanok.xyz
end

basis
  * library cc-pvdz
end

dft
  grid fine
  xc b3lyp
  mult 1
end

stepper
  maxiter 50
#  xyz VX_geomstepper_ccpvdz
end


task dft optimize
task dft freq numerical

