!   File created by the GAMESS Input Deck Generator Plugin for Avogadro
 $BASIS GBASIS=N31 NGAUSS=6 NDFUNC=1 NPFUNC=1 $END
 $CONTRL SCFTYP=RHF RUNTYP=OPTIMIZE DFTTYP=B3LYP $END
 $STATPT OPTTOL=0.0001 NSTEP=20 $END

 $DATA 
Title
C1
C     6.0    -3.32456    -0.19040     0.00000
H     1.0    -2.21516    -0.19040    -0.00000
H     1.0    -3.69436    -0.08199     1.04032
H     1.0    -3.69436    -1.14555    -0.42627
H     1.0    -3.69436     0.65633    -0.61405
 $END
