!PAL8
! CCSD(T) aug-cc-pVDZ RI aug-cc-pVDZ/C RIJDX
* xyz 0 1
C 0.0 0.0 0.0 
O 0.0 0.0 1.128
*


