Au Hg
 1.0000000000000000
    11.5399826689644573    0.0000000000000000    0.0000000000000000
     5.7699913344822287    9.9939181505553663    0.0000000000000000
     0.0000000000000000    0.0000000000000000   27.0667672948810178
 Au  Hg 
  64   1
Cartesian
 -0.0010176056672589 -0.0005875149059209  9.8323138963639636
  2.8860132729083725 -0.0005875149059196  9.8323138963639636
  5.7705934203896296 -0.0006170361760710  9.8352017691301672
  8.6543849158159372 -0.0006170361760701  9.8352017691301583
  1.4424978336205598  2.4996545674506829  9.8323138963639636
  4.3280388283039093  2.4987943825844163  9.8352128339652012
  7.2124891681027856  2.4986083861541366  9.8384259950766904
 10.0969395079016646  2.4987943825844097  9.8352128339652012
  2.8847623411912857  4.9977890150567923  9.8352017691301672
  5.7701029205697170  4.9968946510200398  9.8384259950766957
  8.6548754156358605  4.9968946510200318  9.8384259950766939
 11.5402159950142913  4.9977890150567923  9.8352017691301672
  4.3266580889044386  7.4952257093134964  9.8352017691301672
  7.2124891681027856  7.4948089230253823  9.8352128339652012
 10.0983202473011353  7.4952257093134911  9.8352017691301672
 12.9824805025850143  7.4954386129165247  9.8349963742980577
  1.4424978336205576  0.8328265125462836 12.3039910397353864
  4.3294480974282026  0.8310839587230723 12.3130114981008187
  7.2124891681027865  0.8326023623635683 12.3157846936681192
 10.0955302387773589  0.8310839587230695 12.3130114981008116
  2.8844638696460123  3.3338700573774949 12.3130114981008187
  5.7705926067167894  3.3316531948715991 12.3181416357266649
  8.6543857294887765  3.3316531948715991 12.3181416357266631
 11.5405144665595412  3.3338700573774935 12.3130114981008081
  4.3272993811091771  5.8298976629153243 12.3157846936681157
  7.2124891681027856  5.8290912984510070 12.3181416357266507
 10.0976789550963950  5.8298976629153199 12.3157846936681192
 12.9824805025850161  5.8292694181695630 12.3183523540530420
  5.7675049403206007  8.3274436720936524 12.3130114981008187
  8.6574733958849777  8.3274436720936453 12.3130114981008187
 11.5395356529310877  8.3285232102900117 12.3183523540530420
 14.4254253522389426  8.3285232102900100 12.3183523540530420
 -0.0032878034449258  1.6675512392965310 14.7246964888048684
  2.8882834706860376  1.6675512392965330 14.7246964888048915
  5.7724476069903154  1.6655544202604506 14.7395525363231492
  8.6525307292152540  1.6655544202604506 14.7395525363231510
  1.4424978336205576  4.1615029601191846 14.7485562256848493
  4.3286362428261702  4.1663090595380803 14.7395525363231492
  7.2124891681027865  4.1641325627314023 14.7455750414809952
 10.0963420933794001  4.1663090595380785 14.7395525363231599
  2.8840666802568120  6.6631484512557106 14.7368946853701761
  5.7686778039386430  6.6605342083956778 14.7395525363231421
  8.6563005322669255  6.6605342083956796 14.7395525363231421
 11.5409116559487650  6.6631484512557071 14.7368946853701726
  4.3297708035257099  9.1624064393151983 14.7485562256848617
  7.2124891681027856  9.1572952096011448 14.7246964888048879
 10.0952075326798596  9.1624064393151947 14.7485562256848617
 12.9824805025850143  9.1600189362381546 14.7368946853701726
 -0.0307341553619385 -0.0177443728715293 17.1768051364273227
  2.9157298226030517 -0.0177443728715317 17.1768051364273227
  5.7801374369836980  0.0013095929503116 17.2228700292627614
  8.6448408992218653  0.0013095929503108 17.2228700292627614
  1.4424978336205563  2.5339682833819053 17.1768051364273227
  4.3338865020287471  2.5021705385835826 17.2126151673924639
  7.2124891681027856  2.5011190379410233 17.2279004356451679
 10.0910918341768259  2.5021705385835808 17.2126151673924639
  2.8912028592554377  5.0050910613182067 17.2228700292627614
  5.7722772087972141  4.9956393251265947 17.2279004356451608
  8.6527011274083527  4.9956393251265876 17.2279004356451679
 11.5337754769501366  5.0050910613182031 17.2228700292627543
  4.3235545903745276  7.4859970339256963 17.2228700292627614
  7.2124891681027856  7.4880566110270417 17.2126151673924639
 10.1014237458310525  7.4859970339256936 17.2228700292627543
 12.9824805025850143  7.4954386129165247 17.2234515144917175
  1.4424978336205572  0.8328265125462805 19.5743931196304040
