echo

start molecule

title "Butan_b3lyp_geomopt"
charge 0

geometry units angstroms print xyz autosym
   C       -7.62575       -0.83046       -0.10463
   H       -7.69754       -0.71281       -1.18044
   H       -7.67828       -1.83153        0.30896
   C       -7.18907        0.30933        0.76230
   C       -7.78946        1.62567        0.27378
   C       -5.66559        0.38933        0.80346
   H       -7.55625        0.12232        1.77865
   H       -5.24535        0.57342       -0.19177
   H       -5.23354       -0.54338        1.18327
   H       -5.33787        1.20035        1.46268
   H       -7.45791        1.86762       -0.74242
   H       -7.49474        2.45249        0.92913
   H       -8.88424        1.57918        0.26804
end

basis
  * library 6-31G*
end

dft
  xc b3lyp
  mult 1
end

task dft optimize
