!BP86 DEF2-SVP OPT FREQ

*XYZFILE 0 1 structure.xyz
