!BP86 DEF2-SVP OPT FREQ PAL4

*XYZFILE 0 1 structure.xyz
