&CONTROL
   verbosity        = 'low'
   wf_collect       = .true.
   tstress          = .true.
   tprnfor          = .true.
   outdir           = './tmp'
   prefix           = 'ase_scf'
   disk_io          = 'high'
   pseudo_dir       = './'
/
&SYSTEM
   ibrav            = 0
   nat              = 55
   ntyp             = 2
   ecutwfc          = 60
   nosym            = .false.
   occupations      = 'smearing'
   degauss          = 0.02
   smearing         = 'gauss'
   noncolin         = .true.
   lspinorb         = .true.
   assume_isolated  = '2D'
   starting_magnetization(1) = 0.0
   starting_magnetization(2) = 0.0
/
&ELECTRONS
   electron_maxstep = 100
   conv_thr         = 1e-10
   mixing_beta      = 0.2
   diagonalization  = 'david'
   startingpot      = 'atomic'
   startingwfc      = 'atomic+random'
/
&IONS
/
&CELL
/
&FCP
/
&RISM
/
ATOMIC_SPECIES
Se  78.971 Se_r.upf
Hg  200.592 Hg_r.upf

K_POINTS automatic
4 4 1  0 0 0

CELL_PARAMETERS angstrom
13.04907248300000 0.00000115900000 0.00000000000000
0.00000044400000 15.13348000000000 0.00000000000000
0.00000000000000 0.00000000000000 17.48579978900000

ATOMIC_POSITIONS angstrom
Se  1.6508891315 1.6837469017 3.7833800375   0 0 0
Se  3.8903418474 1.7108391309 7.1852312660  
Se  3.1642919993 3.3592241142 2.8896998588   0 0 0
Se  1.0420296350 3.4316348675 6.3518616650  
Se  1.7096930034 0.0137894932 2.0725911422   0 0 0
Se  3.8089045125 0.0307538750 5.4698783628  
Se  6.0005782781 1.6837487630 3.7833778388   0 0 0
Se  8.2581512279 1.7401483372 7.1738236362  
Se  7.5139785082 3.3592256570 2.8896932891   0 0 0
Se  5.3361938779 3.4121051144 6.3525090972  
Se  6.0593769531 0.0137906478 2.0725890956   0 0 0
Se  8.1823223206 0.0642598414 5.4569019049  
Se  10.3502724514 1.6837465223 3.7833710186   0 0 0
Se  12.6302436941 1.7272853247 7.1541273070  
Se  11.8636766103 3.3592235671 2.8896932602   0 0 0
Se  9.7088940328 3.4501610008 6.3656214903  
Se  10.4090773600 0.0137883654 2.0725834475   0 0 0
Se  12.5906717620 0.0756863620 5.4104175108  
Se  1.6506855375 6.7280182182 3.7833117340   0 0 0
Se  3.7317270682 6.7052762904 7.1058465527  
Se  3.1639926932 8.4039276883 2.8898890194   0 0 0
Se  1.0041865557 8.4729792074 6.3601461842  
Se  1.7096973664 5.0585201930 2.0721673571   0 0 0
Se  3.7561721681 5.0037097098 5.3987097585  
Se  6.0003746542 6.7280201319 3.7833094929   0 0 0
Se  8.2509752652 6.8434886809 7.1522987373  
Se  7.5136792004 8.4039291964 2.8898825031   0 0 0
Se  5.1399332398 8.3743889496 6.1996122810  
Se  6.0593813340 5.0585212997 2.0721652760   0 0 0
Se  8.1601900705 5.1129088597 5.4827137370  
Se  10.3500690377 6.7280178865 3.7833025820   0 0 0
Se  12.6044103226 6.7622421829 7.1835391089  
Se  11.8633773323 8.4039271251 2.8898823950   0 0 0
Se  9.8094333322 8.4607801213 6.3278957642  
Se  10.4090817311 5.0585189658 2.0721595301   0 0 0
Se  12.5328313561 5.0872452339 5.4623747433  
Se  1.6506538675 11.7727124308 3.7839128968   0 0 0
Se  3.7077374723 11.8093809129 7.1097821424  
Se  3.1642562799 13.4480706906 2.8903550029   0 0 0
Se  1.0590938214 13.5317455063 6.3176206467  
Se  1.7094434988 10.1032963955 2.0726019891   0 0 0
Se  3.6425419029 10.1249662638 5.3607813795  
Se  6.0003428289 11.7727143070 3.7839105841   0 0 0
Se  8.4824182448 11.8805387084 7.0984965224  
Se  7.5139427049 13.4480722022 2.8903484928   0 0 0
Se  5.2828885473 13.4599127817 6.3903532623  
Se  6.0591274158 10.1032975129 2.0725999284   0 0 0
Se  8.3365854896 10.1535460989 5.3921939644  
Se  10.3500372389 11.7727120227 3.7839038076   0 0 0
Se  12.5937791443 11.8639538292 7.1435756487  
Se  11.8636409029 13.4480700929 2.8903483656   0 0 0
Se  9.8971909380 13.6468111089 6.2075567597  
Se  10.4088279598 10.1032953896 2.0725941285   0 0 0
Se  12.5095826702 10.1488116179 5.4648543061  
Hg  6.4984272786 10.1698869714 8.1321570267  

