!   File created by MacMolPlt 7.7.3
 $CONTRL SCFTYP=RHF RUNTYP=OPTIMIZE DFTTYP=B3LYP MAXIT=40 MULT=1 NOSYM=1 
    MOLPLT=.TRUE. $END
 $SYSTEM TIMLIM=525600 MEMORY=1000000 $END
 $BASIS GBASIS=N31 NGAUSS=6 $END
 $SCF DIRSCF=.TRUE. $END
 $STATPT OPTTOL=0.0001 NSTEP=20 $END
 $DATA 
CH3Br
C1
C     6.0     0.00000    -0.00000    -0.94737
H     1.0     1.03151     0.30197    -1.32737
H     1.0    -0.77727     0.74233    -1.32737
Br    35.0     0.00000     0.00000     0.19263
H     1.0    -0.25424    -1.04430    -1.32737
 $END
