echo

start molecule

title "LiCl"
charge 0

geometry units angstroms print
 zmatrix
 Li
 Cl    1    r2
 variables
   r2        2.22688
 end
end

basis
  * library 6-31G*
end

dft
  xc b3lyp
  mult 1
end

task dft optimize
task dft freq
