echo

start molecule

title "Q-G"
charge 0

geometry units angstroms print xyz autosym
  load format xyz Quartz-G_001.molecular_slab_smaller.xyz
end

relativistic
   DOUGLAS-KROLL DKH
end

#
basis spherical
 Si library  dzp-dkh
 O  library  dzp-dkh
 H  library  dzp-dkh
end

dft
  xc b3lyp
  mult 1
  maxiter 100
end

task dft energy
