echo

start molecule

print low

title "Q-G ecp"
charge 0

geometry units angstroms print xyz autosym
  load format xyz QuartzG153at.xyz
end

basis
 * library lanl2dz_ecp
end

ecp 
  Si library lanl2dz_ecp
end

dft
  xc b3lyp
  mult 1
  maxiter 100
end

driver
  maxiter 999
  xyz QG_geom
end

task dft geometry

#task dft frequencies

