echo

start molecule

title "Butan"
charge 0

geometry units angstroms print xyz autosym
   C       -9.38554       -0.71078       -0.13644
   C       -7.85971       -0.70069       -0.12876
   H       -9.74913       -1.54571       -0.77180
   H       -9.77593        0.24475       -0.54714
   H       -9.77593       -0.85191        0.89399
   H       -7.49644       -0.58038       -1.17280
   H       -7.49644       -1.67488        0.26550
   C       -7.31884        0.44053        0.73966
   H       -7.68211        1.41472        0.34541
   C       -5.79302        0.45063        0.74735
   H       -7.68211        0.32023        1.78370
   H       -5.40262        0.59175       -0.28309
   H       -5.40262       -0.50490        1.15805
   H       -5.42942        1.28555        1.38270
end

basis
  * library 6-31G*
end

dft
  xc b3lyp
  mult 1
end

task dft optimize
