 $CONTRL COORD=CART UNITS=ANGS $END

 $DATA

C1
C      6.0      1.6681000000   -1.9221000000    0.8731000000 
C      6.0      2.8623000000   -3.3135000000   -0.3923000000 
C      6.0      2.4533000000   -3.2199000000    1.0802000000 
C      6.0      0.6697000000   -2.3017000000   -0.2457000000 
C      6.0      3.5473000000   -1.9546000000   -0.6393000000 
C      6.0      1.4895000000   -3.2981000000   -1.0952000000 
C      6.0      2.7533000000   -1.0017000000    0.2735000000 
N      7.0     -0.5375000000   -2.9214000000    0.2923000000 
Cl    17.0      5.2680000000   -2.0025000000   -0.1767000000 
H      1.0      1.2040000000   -1.5051000000    1.7706000000 
H      1.0      3.2996000000   -3.1055000000    1.7656000000 
H      1.0      1.8366000000   -4.0610000000    1.4113000000 
H      1.0      0.3793000000   -1.4257000000   -0.8364000000 
H      1.0      2.3168000000   -0.1713000000   -0.2917000000 
H      1.0      3.3706000000   -0.5749000000    1.0727000000 
H      1.0      3.4676000000   -4.1834000000   -0.6567000000 
H      1.0      3.5022000000   -1.6476000000   -1.6887000000 
H      1.0      1.5577000000   -2.9777000000   -2.1403000000 
H      1.0      1.0514000000   -4.3036000000   -1.0875000000 
H      1.0     -0.3168000000   -3.8206000000    0.7190000000 
H      1.0     -1.1839000000   -3.1209000000   -0.4695000000 
 $END


