#
#  fcc Al, now Og
#  Equilibrium lattice parameter: ....
#
  atom 0. 0. 0. Og 
# 
# unit cell
#
lattice_vector  4.7  4.7  0.0
lattice_vector  0.0  4.7  4.7  
lattice_vector  4.7  0.0  4.7 
