#
#  fcc Al
#  Equilibrium lattice parameter: 3.98 A (LDA)
#
  atom 0. 0. 0. Al
# 
# unit cell
#
lattice_vector  1.99 1.99 0.0
lattice_vector  0.0  1.99 1.99
lattice_vector  1.99 0.0  1.99
