11
XYZ file generated by Avogadro.
U     -3.3460865021   -0.3956519663   -0.0000009537
I     -5.0705490112   -0.3913904130    0.0000009537
I     -1.7641775608   -0.3563405871   -0.0000019073
O     -3.3180553913    1.0339711905   -0.0000019073
O     -3.3414218426   -1.8868517876    0.0000009537
O     -3.2710233033   -0.4102720916   -1.3027052879
H     -3.5960476783    0.3800375570   -1.7177592510
H     -2.4940400360   -0.7110789577   -1.7591176114
O     -3.0964546204   -0.4372801781    1.4104244709
H     -3.2579405443    0.1236305009    2.1599586489
H     -2.1658490981   -0.6161074916    1.3433861892
