11
Properties=species:S:1:pos:R:3 labels="_JSON [\"U1\", \"O1\", \"O2\", \"I1\", \"I2\", \"O3\", \"O4\", \"H1\", \"H2\", \"H3\", \"H4\"]" reference="Crawford et al., Inorg. Chem. 2003" pbc="F F F"
U        0.00000000       0.00000000       0.00000000
O        0.00000000       0.00000000       1.77300000
O        0.00000000       0.00000000      -1.77300000
I        3.02670000       0.00000000       0.00000000
I       -3.02670000       0.00000000       0.00000000
O        0.00000000       2.31800000       0.00000000
O        0.00000000      -2.31800000       0.00000000
H        0.75115510       2.89960642       0.05000000
H       -0.75115510       2.89960642      -0.05000000
H        0.75115510      -2.89960642      -0.05000000
H       -0.75115510      -2.89960642       0.05000000
