#===============================================================================
# Created using the Atomic Simulation Environment (ASE)

# Tue Jul  9 20:45:37 2024

#=======================================================
lattice_vector 3.8395898218429529 0.0000000000000000 0.0000000000000002 
lattice_vector 0.0000000000000006 3.8395898218429529 0.0000000000000002 
lattice_vector 0.0000000000000000 0.0000000000000000 43.4399999999999977 
atom_frac 0.5000000000000000 0.5000000000000000 0.5156250000000000 Si
atom_frac 0.5000000000000000 0.0000000000000000 0.5468750000000000 Si
atom_frac 0.0000000000000000 0.0000000000000000 0.5781250000000000 Si
atom_frac 0.0000000000000000 0.5000000000000000 0.6093750000000000 Si
atom_frac 0.5000000000000000 0.5000000000000000 0.3906250000000000 Si
atom_frac 0.5000000000000000 0.0000000000000000 0.4218749999999999 Si
atom_frac 0.0000000000000000 0.0000000000000000 0.4531250000000000 Si
atom_frac 0.0000000000000000 0.5000000000000000 0.4843749999999999 Si
