&CONTROL
   verbosity        = 'low'
   tstress          = .true.
   tprnfor          = .true.
   outdir           = './tmp'
   prefix           = 'c_hg'
   pseudo_dir       = './'
/
&SYSTEM
   ibrav            = 0
   nat              = 9
   ntyp             = 2
   ecutwfc          = 65
   occupations      = 'smearing'
   degauss          = 0.01
   smearing         = 'gauss'
   noncolin         = .true.
   lspinorb         = .true.
   assume_isolated  = '2D'
   vdw_corr         = 'DFT-D3'
   starting_magnetization(1) = 0.0
   starting_magnetization(2) = 0.0
/
&ELECTRONS
   conv_thr         = 1e-10
/
&IONS
/
&CELL
/
&FCP
/
&RISM
/
ATOMIC_SPECIES
C  12.011 C_r.upf
Hg  200.592 Hg-sp_r.upf

K_POINTS automatic
2 2 1  0 0 0

CELL_PARAMETERS angstrom
4.91200017930000 0.00000000000000 0.00000000000000
-2.45600065610000 4.25391661160000 0.00000000000000
0.00000000000000 0.00000000000000 15.00000000000000

ATOMIC_POSITIONS angstrom
C  0.0000000000 0.0001481856 7.4565810343  
C  -1.2278718566 2.1268841769 7.4565810343  
C  2.4560000900 0.0000000000 7.4633449543  
C  1.2278712906 2.1268841769 7.4565810343  
C  1.2279309585 0.7090260158 7.4605167432  
C  -0.0000003780 2.8358648471 7.4605167432  
C  3.6840688855 0.7090260158 7.4605167432  
C  2.4559997120 2.8359442390 7.4512167563  
Hg  2.4559997120 2.8359442390 10.8341452861  

