echo

start molecule

title "Title"
charge 0

geometry units angstroms print
 zmatrix
  H
  H    1    r2
 variables
   r2        1.10000
 end
end

basis
  * library 6-31G*
end

dft
  xc b3lyp
  mult 1
end

task dft optimize
