echo

start molecule

print low

title "Q-G ecp"
charge 0

geometry units angstroms print xyz autosym
  load format xyz Quartz-G_001.molecular_slab_smaller.xyz
end

basis
 Si library sto-3g
  O library lanl2dz_ecp
  H library sto-3g
end

ecp 
  O library lanl2dz_ecp
end

dft
  xc b3lyp
  mult 1
  maxiter 100
end

task dft energy
