!B3LYP D4 DEF2-TZVP OPT FREQ
* XYZFILE 0 1 gem-butene.xyz
