!B3LYP D4 DEF2-TZVP OPT FREQ PAL4
* XYZFILE 0 1 gem-butene.xyz
