echo

start molecule

title "Q-G ecp"
charge 0

geometry units angstroms print xyz autosym
  load format xyz Quartz-G_001.molecular_slab_smaller.xyz
end

#relativistic
#   DOUGLAS-KROLL DKH
#end

#
basis 
* library "LANL2DZ ECP"
end

ecp 
* library "LANL2DZ ECP"
end


dft
  xc b3lyp
  mult 1
  maxiter 100
end

task dft energy
