# PART A - ENERGY MINIMIZATION
# 1) Initialization

units lj # Lennard-Jones (LJ) units are a dimensionless system of units.

dimension 3 # 3D simulation

atom_style atomic  


# atoms will be interacting through a Lennard-Jones potential with a cut-off equal to rc=2.5 :
pair_style lj/cut 2.5 

# the periodic boundary conditions will be used along all three directions of space (the 3 p stand for x, y, and z, respectively).
boundary p p p

# 2) System definition
region simulation_box block -20 20 -20 20 -20 20
create_box 2 simulation_box
create_atoms 1 random 1500 341341 simulation_box
create_atoms 2 random 100 127569 simulation_box

# 3) Simulation settings
mass 1 1
mass 2 1
pair_coeff 1 1 1.0 1.0
pair_coeff 2 2 0.5 3.0

# 4) Visualization
thermo 10
thermo_style custom step temp pe ke etotal press


# 5) Run
minimize 1.0e-4 1.0e-6 1000 10000

# PART B - MOLECULAR DYNAMICS
# 4) Visualization
thermo 50
dump mydmp all atom 100 dump.lammpstrj

# 5) Run
fix mynve all nve
fix mylgv all langevin 1.0 1.0 0.1 1530917
timestep 0.005
run 10000

